NAME          mmclbp_m20_n500_s0
ROWS
 N  obj
 L  cover
 L  c1_0_1
 L  c1_0_2
 L  c1_0_14
 L  c1_0_16
 L  c1_2_0
 L  c1_2_1
 L  c1_2_2
 L  c1_2_5
 L  c1_2_9
 L  c1_2_11
 L  c1_2_16
 L  c1_2_18
 L  c1_3_7
 L  c1_4_14
 L  c1_4_16
 L  c1_5_1
 L  c1_5_2
 L  c1_5_5
 L  c1_5_14
 L  c1_5_16
 L  c1_5_18
 L  c1_7_7
 L  c1_8_14
 L  c1_9_14
 L  c1_10_7
 L  c1_15_4
 L  c1_15_5
 L  c1_15_19
 L  c1_16_4
 L  c1_16_5
 L  c1_16_10
 L  c1_16_19
 L  c1_18_7
 L  c1_19_7
 L  c1_20_2
 L  c1_20_14
 L  c1_20_16
 L  c1_21_8
 L  c1_21_12
 L  c1_21_13
 L  c1_21_15
 L  c1_21_17
 L  c1_22_14
 L  c1_24_0
 L  c1_24_3
 L  c1_24_6
 L  c1_24_9
 L  c1_24_11
 L  c1_25_0
 L  c1_25_2
 L  c1_25_3
 L  c1_25_11
 L  c1_25_12
 L  c1_25_15
 L  c1_25_16
 L  c1_26_8
 L  c1_26_12
 L  c1_26_13
 L  c1_26_15
 L  c1_26_17
 L  c1_27_7
 L  c1_30_14
 L  c1_31_6
 L  c1_31_9
 L  c1_32_2
 L  c1_32_12
 L  c1_32_15
 L  c1_32_16
 L  c1_32_17
 L  c1_33_0
 L  c1_33_1
 L  c1_33_2
 L  c1_33_5
 L  c1_33_11
 L  c1_33_14
 L  c1_33_16
 L  c1_33_18
 L  c1_34_3
 L  c1_34_8
 L  c1_34_13
 L  c1_34_15
 L  c1_35_0
 L  c1_35_2
 L  c1_35_3
 L  c1_35_6
 L  c1_35_11
 L  c1_35_15
 L  c1_36_1
 L  c1_36_5
 L  c1_36_14
 L  c1_37_1
 L  c1_37_4
 L  c1_37_5
 L  c1_38_4
 L  c1_38_5
 L  c1_38_10
 L  c1_38_19
 L  c1_39_5
 L  c1_39_9
 L  c1_39_10
 L  c1_39_19
 L  c1_40_1
 L  c1_40_4
 L  c1_40_5
 L  c1_40_14
 L  c1_40_18
 L  c1_41_4
 L  c1_41_5
 L  c1_41_10
 L  c1_41_19
 L  c1_42_0
 L  c1_42_1
 L  c1_42_2
 L  c1_42_11
 L  c1_42_14
 L  c1_42_15
 L  c1_42_16
 L  c1_42_18
 L  c1_43_7
 L  c1_44_1
 L  c1_44_14
 L  c1_45_1
 L  c1_45_5
 L  c1_45_14
 L  c1_45_16
 L  c1_45_18
 L  c1_46_7
 L  c1_47_0
 L  c1_47_1
 L  c1_47_2
 L  c1_47_5
 L  c1_47_11
 L  c1_47_14
 L  c1_47_16
 L  c1_47_18
 L  c1_48_0
 L  c1_48_1
 L  c1_48_2
 L  c1_48_5
 L  c1_48_11
 L  c1_48_14
 L  c1_48_16
 L  c1_48_18
 L  c1_49_1
 L  c1_49_5
 L  c1_49_14
 L  c1_49_16
 L  c1_49_18
 L  c1_50_4
 L  c1_50_5
 L  c1_51_0
 L  c1_51_2
 L  c1_51_3
 L  c1_51_6
 L  c1_51_11
 L  c1_51_15
 L  c1_52_0
 L  c1_52_1
 L  c1_52_5
 L  c1_52_9
 L  c1_52_10
 L  c1_52_18
 L  c1_52_19
 L  c1_53_8
 L  c1_53_13
 L  c1_53_15
 L  c1_54_6
 L  c1_54_9
 L  c1_55_8
 L  c1_55_12
 L  c1_55_13
 L  c1_55_15
 L  c1_56_2
 L  c1_56_8
 L  c1_56_12
 L  c1_56_15
 L  c1_56_17
 L  c1_57_8
 L  c1_57_12
 L  c1_57_13
 L  c1_57_15
 L  c1_57_17
 L  c1_58_1
 L  c1_58_4
 L  c1_58_5
 L  c1_58_18
 L  c1_58_19
 L  c1_60_1
 L  c1_60_5
 L  c1_60_14
 L  c1_60_18
 L  c1_61_0
 L  c1_61_6
 L  c1_61_9
 L  c1_61_10
 L  c1_62_9
 L  c1_62_10
 L  c1_62_19
 L  c1_63_17
 L  c1_66_7
 L  c1_67_4
 L  c1_68_3
 L  c1_68_6
 L  c1_68_11
 L  c1_68_13
 L  c1_68_15
 L  c1_70_2
 L  c1_70_8
 L  c1_70_12
 L  c1_70_15
 L  c1_70_17
 L  c1_71_14
 L  c1_72_4
 L  c1_72_5
 L  c1_72_10
 L  c1_72_19
 L  c1_73_0
 L  c1_73_1
 L  c1_73_2
 L  c1_73_5
 L  c1_73_11
 L  c1_73_14
 L  c1_73_16
 L  c1_73_18
 L  c1_74_1
 L  c1_74_4
 L  c1_74_5
 L  c1_74_14
 L  c1_75_14
 L  c1_76_3
 L  c1_76_8
 L  c1_76_13
 L  c1_76_15
 L  c1_77_1
 L  c1_77_4
 L  c1_77_5
 L  c1_77_14
 L  c1_77_18
 L  c1_78_7
 L  c1_79_12
 L  c1_79_17
 L  c1_80_0
 L  c1_80_2
 L  c1_80_3
 L  c1_80_11
 L  c1_80_12
 L  c1_80_15
 L  c1_80_16
 L  c1_82_7
 L  c1_83_1
 L  c1_83_5
 L  c1_83_14
 L  c1_83_16
 L  c1_83_18
 L  c1_84_0
 L  c1_84_3
 L  c1_84_6
 L  c1_84_9
 L  c1_84_11
 L  c1_85_4
 L  c1_86_14
 L  c1_87_8
 L  c1_87_12
 L  c1_87_13
 L  c1_87_15
 L  c1_87_17
 L  c1_88_14
 L  c1_88_16
 L  c1_89_0
 L  c1_89_2
 L  c1_89_3
 L  c1_89_6
 L  c1_89_9
 L  c1_89_11
 L  c1_89_18
 L  c1_90_0
 L  c1_90_3
 L  c1_90_6
 L  c1_90_9
 L  c1_90_11
 L  c1_90_18
 L  c1_91_2
 L  c1_91_3
 L  c1_91_8
 L  c1_91_11
 L  c1_91_12
 L  c1_91_13
 L  c1_91_15
 L  c1_92_3
 L  c1_92_8
 L  c1_92_13
 L  c1_92_15
 L  c1_93_14
 L  c1_94_5
 L  c1_94_9
 L  c1_94_10
 L  c1_94_19
 L  c1_95_7
 L  c1_97_12
 L  c1_98_1
 L  c1_98_2
 L  c1_98_14
 L  c1_98_16
 L  c1_99_2
 L  c1_99_12
 L  c1_99_15
 L  c1_99_16
 L  c1_99_17
 L  c1_102_1
 L  c1_102_4
 L  c1_102_5
 L  c1_102_14
 L  c1_102_18
 L  c1_103_14
 L  c1_104_12
 L  c1_104_17
 L  c1_105_3
 L  c1_105_6
 L  c1_105_11
 L  c1_105_13
 L  c1_105_15
 L  c1_106_0
 L  c1_106_1
 L  c1_106_5
 L  c1_106_6
 L  c1_106_9
 L  c1_106_10
 L  c1_106_18
 L  c1_106_19
 L  c1_108_0
 L  c1_108_1
 L  c1_108_2
 L  c1_108_5
 L  c1_108_11
 L  c1_108_14
 L  c1_108_16
 L  c1_108_18
 L  c1_109_4
 L  c1_110_7
 L  c1_111_8
 L  c1_111_13
 L  c1_112_0
 L  c1_112_1
 L  c1_112_3
 L  c1_112_6
 L  c1_112_9
 L  c1_112_11
 L  c1_112_18
 L  c1_113_2
 L  c1_113_11
 L  c1_113_12
 L  c1_113_15
 L  c1_113_16
 L  c1_113_17
 L  c1_114_12
 L  c1_114_17
 L  c1_115_9
 L  c1_115_10
 L  c1_115_19
 L  c1_116_3
 L  c1_116_6
 L  c1_116_11
 L  c1_116_13
 L  c1_116_15
 L  c1_117_3
 L  c1_117_8
 L  c1_117_13
 L  c1_117_15
 L  c1_118_9
 L  c1_118_10
 L  c1_118_19
 L  c1_119_0
 L  c1_119_3
 L  c1_119_6
 L  c1_119_9
 L  c1_119_11
 L  c1_119_18
 L  c1_120_2
 L  c1_120_3
 L  c1_120_11
 L  c1_120_13
 L  c1_120_15
 L  c1_123_4
 L  c1_123_5
 L  c1_123_19
 L  c1_124_0
 L  c1_124_1
 L  c1_124_2
 L  c1_124_3
 L  c1_124_11
 L  c1_124_14
 L  c1_124_16
 L  c1_124_18
 L  c1_126_4
 L  c1_127_14
 L  c1_128_8
 L  c1_128_12
 L  c1_128_13
 L  c1_128_15
 L  c1_128_17
 L  c1_129_9
 L  c1_129_10
 L  c1_130_9
 L  c1_130_10
 L  c1_130_19
 L  c1_131_7
 L  c1_132_14
 L  c1_133_7
 L  c1_136_7
 L  c1_137_14
 L  c1_138_0
 L  c1_138_1
 L  c1_138_2
 L  c1_138_11
 L  c1_138_14
 L  c1_138_16
 L  c1_138_18
 L  c1_139_5
 L  c1_139_9
 L  c1_139_10
 L  c1_139_19
 L  c1_140_7
 L  c1_141_7
 L  c1_142_2
 L  c1_142_12
 L  c1_142_14
 L  c1_142_16
 L  c1_143_0
 L  c1_143_1
 L  c1_143_2
 L  c1_143_5
 L  c1_143_6
 L  c1_143_9
 L  c1_143_11
 L  c1_143_16
 L  c1_143_18
 L  c1_143_19
 L  c1_144_14
 L  c1_144_16
 L  c1_145_8
 L  c1_145_12
 L  c1_145_13
 L  c1_145_15
 L  c1_145_17
 L  c1_146_8
 L  c1_146_12
 L  c1_146_13
 L  c1_146_15
 L  c1_146_17
 L  c1_147_0
 L  c1_147_5
 L  c1_147_6
 L  c1_147_9
 L  c1_147_10
 L  c1_147_18
 L  c1_147_19
 L  c1_148_14
 L  c1_149_14
 L  c1_150_14
 L  c1_153_1
 L  c1_153_14
 L  c1_154_0
 L  c1_154_3
 L  c1_154_6
 L  c1_154_9
 L  c1_154_11
 L  c1_156_0
 L  c1_156_1
 L  c1_156_2
 L  c1_156_14
 L  c1_156_16
 L  c1_156_18
 L  c1_157_0
 L  c1_157_1
 L  c1_157_2
 L  c1_157_3
 L  c1_157_6
 L  c1_157_11
 L  c1_157_16
 L  c1_157_18
 L  c1_158_7
 L  c1_159_3
 L  c1_159_6
 L  c1_159_11
 L  c1_159_13
 L  c1_159_15
 L  c1_160_3
 L  c1_160_8
 L  c1_160_13
 L  c1_160_15
 L  c1_161_0
 L  c1_161_1
 L  c1_161_2
 L  c1_161_5
 L  c1_161_14
 L  c1_161_16
 L  c1_161_18
 L  c1_162_4
 L  c1_162_5
 L  c1_162_19
 L  c1_163_1
 L  c1_163_4
 L  c1_163_5
 L  c1_163_14
 L  c1_163_18
 L  c1_164_5
 L  c1_164_9
 L  c1_164_10
 L  c1_164_19
 L  c1_165_1
 L  c1_165_5
 L  c1_165_14
 L  c1_166_0
 L  c1_166_1
 L  c1_166_5
 L  c1_166_9
 L  c1_166_18
 L  c1_166_19
 L  c1_167_7
 L  c1_168_6
 L  c1_168_9
 L  c1_168_10
 L  c1_169_0
 L  c1_169_1
 L  c1_169_2
 L  c1_169_11
 L  c1_169_14
 L  c1_169_15
 L  c1_169_16
 L  c1_169_18
 L  c1_170_4
 L  c1_170_5
 L  c1_170_19
 L  c1_171_4
 L  c1_171_5
 L  c1_171_10
 L  c1_171_19
 L  c1_172_6
 L  c1_172_9
 L  c1_172_10
 L  c1_172_19
 L  c1_174_1
 L  c1_174_5
 L  c1_174_14
 L  c1_174_16
 L  c1_174_18
 L  c1_175_12
 L  c1_175_17
 L  c1_176_2
 L  c1_176_3
 L  c1_176_8
 L  c1_176_11
 L  c1_176_12
 L  c1_176_13
 L  c1_176_15
 L  c1_177_8
 L  c1_177_13
 L  c1_178_14
 L  c1_178_16
 L  c1_179_7
 L  c1_180_0
 L  c1_180_3
 L  c1_180_6
 L  c1_180_11
 L  c1_180_13
 L  c1_180_15
 L  c1_181_8
 L  c1_181_13
 L  c1_181_15
 L  c1_182_4
 L  c1_182_5
 L  c1_182_19
 L  c1_185_12
 L  c1_185_17
 L  c1_186_7
 L  c1_187_7
 L  c1_188_7
 L  c1_189_8
 L  c1_189_12
 L  c1_189_15
 L  c1_189_17
 L  c1_190_9
 L  c1_190_10
 L  c1_192_0
 L  c1_192_1
 L  c1_192_2
 L  c1_192_5
 L  c1_192_14
 L  c1_192_16
 L  c1_192_18
 L  c1_194_4
 L  c1_194_5
 L  c1_195_2
 L  c1_195_11
 L  c1_195_12
 L  c1_195_15
 L  c1_195_16
 L  c1_195_17
 L  c1_196_2
 L  c1_196_11
 L  c1_196_12
 L  c1_196_15
 L  c1_196_16
 L  c1_196_17
 L  c1_197_1
 L  c1_197_2
 L  c1_197_14
 L  c1_197_16
 L  c1_197_18
 L  c1_198_1
 L  c1_198_14
 L  c1_199_1
 L  c1_199_4
 L  c1_199_5
 L  c1_199_14
 L  c1_199_18
 L  c1_200_0
 L  c1_200_2
 L  c1_200_3
 L  c1_200_6
 L  c1_200_11
 L  c1_200_13
 L  c1_200_15
 L  c1_203_6
 L  c1_203_9
 L  c1_203_10
 L  c1_204_9
 L  c1_204_10
 L  c1_204_19
 L  c1_205_3
 L  c1_205_13
 L  c1_205_15
 L  c1_206_7
 L  c1_207_4
 L  c1_209_0
 L  c1_209_6
 L  c1_209_9
 L  c1_209_10
 L  c1_210_14
 L  c1_210_16
 L  c1_211_0
 L  c1_211_2
 L  c1_211_3
 L  c1_211_6
 L  c1_211_11
 L  c1_211_15
 L  c1_211_16
 L  c1_212_7
 L  c1_213_14
 L  c1_213_16
 L  c1_214_4
 L  c1_215_0
 L  c1_215_3
 L  c1_215_6
 L  c1_215_11
 L  c1_216_0
 L  c1_216_3
 L  c1_216_6
 L  c1_216_9
 L  c1_216_11
 L  c1_216_18
 L  c1_217_9
 L  c1_217_10
 L  c1_217_19
 L  c1_218_6
 L  c1_218_9
 L  c1_219_4
 L  c1_219_5
 L  c1_219_19
 L  c1_220_7
 L  c1_221_12
 L  c1_221_17
 L  c1_222_8
 L  c1_222_12
 L  c1_222_15
 L  c1_222_17
 L  c1_223_0
 L  c1_223_2
 L  c1_223_3
 L  c1_223_6
 L  c1_223_11
 L  c1_223_13
 L  c1_223_15
 L  c1_224_4
 L  c1_224_5
 L  c1_224_10
 L  c1_224_19
 L  c1_225_2
 L  c1_225_11
 L  c1_225_12
 L  c1_225_15
 L  c1_225_16
 L  c1_225_17
 L  c1_226_4
 L  c1_226_5
 L  c1_227_14
 L  c1_228_1
 L  c1_228_2
 L  c1_228_14
 L  c1_228_16
 L  c1_228_18
 L  c1_229_2
 L  c1_229_12
 L  c1_229_16
 L  c1_229_17
 L  c1_230_14
 L  c1_230_16
 L  c1_231_0
 L  c1_231_1
 L  c1_231_2
 L  c1_231_3
 L  c1_231_6
 L  c1_231_11
 L  c1_231_15
 L  c1_231_16
 L  c1_231_18
 L  c1_232_3
 L  c1_232_6
 L  c1_232_11
 L  c1_232_13
 L  c1_232_15
 L  c1_234_2
 L  c1_234_12
 L  c1_234_16
 L  c1_235_7
 L  c1_236_0
 L  c1_236_1
 L  c1_236_5
 L  c1_236_9
 L  c1_236_10
 L  c1_236_18
 L  c1_236_19
 L  c1_237_0
 L  c1_237_1
 L  c1_237_2
 L  c1_237_3
 L  c1_237_5
 L  c1_237_6
 L  c1_237_9
 L  c1_237_11
 L  c1_237_16
 L  c1_237_18
 L  c1_239_0
 L  c1_239_3
 L  c1_239_6
 L  c1_239_9
 L  c1_239_11
 L  c1_240_14
 L  c1_241_8
 L  c1_241_12
 L  c1_241_13
 L  c1_241_15
 L  c1_241_17
 L  c1_242_17
 L  c1_243_0
 L  c1_243_3
 L  c1_243_6
 L  c1_243_9
 L  c1_243_11
 L  c1_244_12
 L  c1_244_17
 L  c1_245_7
 L  c1_246_1
 L  c1_246_14
 L  c1_247_7
 L  c1_248_0
 L  c1_248_1
 L  c1_248_2
 L  c1_248_3
 L  c1_248_6
 L  c1_248_9
 L  c1_248_11
 L  c1_248_16
 L  c1_248_18
 L  c1_249_0
 L  c1_249_3
 L  c1_249_6
 L  c1_249_9
 L  c1_250_8
 L  c1_250_12
 L  c1_250_17
 L  c1_251_0
 L  c1_251_1
 L  c1_251_2
 L  c1_251_5
 L  c1_251_11
 L  c1_251_14
 L  c1_251_16
 L  c1_251_18
 L  c1_253_0
 L  c1_253_6
 L  c1_253_9
 L  c1_253_11
 L  c1_253_18
 L  c1_254_1
 L  c1_254_14
 L  c1_254_16
 L  c1_256_0
 L  c1_256_1
 L  c1_256_2
 L  c1_256_11
 L  c1_256_14
 L  c1_256_16
 L  c1_256_18
 L  c1_258_12
 L  c1_259_0
 L  c1_259_3
 L  c1_259_6
 L  c1_259_9
 L  c1_259_11
 L  c1_261_9
 L  c1_261_10
 L  c1_261_19
 L  c1_262_0
 L  c1_262_3
 L  c1_262_6
 L  c1_262_11
 L  c1_263_0
 L  c1_263_3
 L  c1_263_6
 L  c1_263_9
 L  c1_263_11
 L  c1_264_6
 L  c1_264_9
 L  c1_264_10
 L  c1_266_12
 L  c1_267_4
 L  c1_268_8
 L  c1_268_12
 L  c1_268_13
 L  c1_268_15
 L  c1_269_0
 L  c1_269_2
 L  c1_269_3
 L  c1_269_6
 L  c1_269_11
 L  c1_269_15
 L  c1_270_2
 L  c1_270_8
 L  c1_270_12
 L  c1_270_15
 L  c1_270_17
 L  c1_272_14
 L  c1_273_7
 L  c1_274_8
 L  c1_274_13
 L  c1_274_15
 L  c1_275_0
 L  c1_275_6
 L  c1_275_9
 L  c1_275_10
 L  c1_276_0
 L  c1_276_1
 L  c1_276_5
 L  c1_276_14
 L  c1_276_16
 L  c1_276_18
 L  c1_277_3
 L  c1_277_13
 L  c1_277_15
 L  c1_278_1
 L  c1_278_2
 L  c1_278_14
 L  c1_278_16
 L  c1_279_3
 L  c1_279_6
 L  c1_279_11
 L  c1_279_13
 L  c1_279_15
 L  c1_280_7
 L  c1_282_0
 L  c1_282_1
 L  c1_282_2
 L  c1_282_5
 L  c1_282_14
 L  c1_282_16
 L  c1_282_18
 L  c1_283_7
 L  c1_284_1
 L  c1_284_14
 L  c1_284_16
 L  c1_285_1
 L  c1_285_14
 L  c1_285_16
 L  c1_286_4
 L  c1_287_7
 L  c1_288_0
 L  c1_288_1
 L  c1_288_2
 L  c1_288_5
 L  c1_288_11
 L  c1_288_14
 L  c1_288_16
 L  c1_288_18
 L  c1_289_3
 L  c1_289_6
 L  c1_289_11
 L  c1_289_13
 L  c1_289_15
 L  c1_290_0
 L  c1_290_2
 L  c1_290_3
 L  c1_290_11
 L  c1_290_12
 L  c1_290_15
 L  c1_290_16
 L  c1_291_0
 L  c1_291_3
 L  c1_291_6
 L  c1_291_9
 L  c1_291_11
 L  c1_291_18
 L  c1_292_9
 L  c1_292_10
 L  c1_292_19
 L  c1_293_0
 L  c1_293_1
 L  c1_293_5
 L  c1_293_9
 L  c1_293_10
 L  c1_293_18
 L  c1_293_19
 L  c1_295_7
 L  c1_296_0
 L  c1_296_1
 L  c1_296_2
 L  c1_296_11
 L  c1_296_14
 L  c1_296_16
 L  c1_296_18
 L  c1_297_6
 L  c1_297_9
 L  c1_297_10
 L  c1_298_7
 L  c1_299_0
 L  c1_299_1
 L  c1_299_2
 L  c1_299_3
 L  c1_299_6
 L  c1_299_9
 L  c1_299_11
 L  c1_299_16
 L  c1_299_18
 L  c1_300_9
 L  c1_300_10
 L  c1_301_4
 L  c1_301_5
 L  c1_303_0
 L  c1_303_1
 L  c1_303_2
 L  c1_303_5
 L  c1_303_9
 L  c1_303_11
 L  c1_303_16
 L  c1_303_18
 L  c1_303_19
 L  c1_305_0
 L  c1_305_1
 L  c1_305_2
 L  c1_305_11
 L  c1_305_14
 L  c1_305_16
 L  c1_305_18
 L  c1_306_7
 L  c1_309_3
 L  c1_309_6
 L  c1_309_11
 L  c1_310_0
 L  c1_310_2
 L  c1_310_3
 L  c1_310_6
 L  c1_310_11
 L  c1_310_15
 L  c1_311_7
 L  c1_312_1
 L  c1_312_2
 L  c1_312_14
 L  c1_312_16
 L  c1_313_1
 L  c1_313_5
 L  c1_313_14
 L  c1_314_0
 L  c1_314_1
 L  c1_314_5
 L  c1_314_9
 L  c1_314_18
 L  c1_314_19
 L  c1_315_1
 L  c1_315_2
 L  c1_315_14
 L  c1_315_16
 L  c1_317_1
 L  c1_317_5
 L  c1_317_9
 L  c1_317_10
 L  c1_317_18
 L  c1_317_19
 L  c1_318_0
 L  c1_318_1
 L  c1_318_5
 L  c1_318_14
 L  c1_318_18
 L  c1_318_19
 L  c1_319_12
 L  c1_319_17
 L  c1_320_14
 L  c1_320_16
 L  c1_321_8
 L  c1_321_12
 L  c1_321_13
 L  c1_321_15
 L  c1_321_17
 L  c1_322_8
 L  c1_322_12
 L  c1_322_15
 L  c1_322_17
 L  c1_323_0
 L  c1_323_1
 L  c1_323_5
 L  c1_323_9
 L  c1_323_16
 L  c1_323_18
 L  c1_323_19
 L  c1_326_1
 L  c1_326_2
 L  c1_326_14
 L  c1_326_16
 L  c1_326_18
 L  c1_327_1
 L  c1_327_14
 L  c1_327_16
 L  c1_328_7
 L  c1_329_0
 L  c1_329_2
 L  c1_329_3
 L  c1_329_6
 L  c1_329_9
 L  c1_329_11
 L  c1_329_15
 L  c1_329_18
 L  c1_330_14
 L  c1_331_7
 L  c1_332_7
 L  c1_333_7
 L  c1_334_8
 L  c1_334_12
 L  c1_334_13
 L  c1_334_15
 L  c1_334_17
 L  c1_335_12
 L  c1_335_15
 L  c1_335_17
 L  c1_336_1
 L  c1_336_4
 L  c1_336_5
 L  c1_336_14
 L  c1_336_18
 L  c1_337_7
 L  c1_338_0
 L  c1_338_1
 L  c1_338_2
 L  c1_338_11
 L  c1_338_14
 L  c1_338_16
 L  c1_338_18
 L  c1_339_0
 L  c1_339_2
 L  c1_339_3
 L  c1_339_6
 L  c1_339_11
 L  c1_339_13
 L  c1_339_15
 L  c1_339_16
 L  c1_340_6
 L  c1_340_9
 L  c1_340_10
 L  c1_341_8
 L  c1_341_13
 L  c1_341_15
 L  c1_342_0
 L  c1_342_2
 L  c1_342_3
 L  c1_342_6
 L  c1_342_11
 L  c1_342_13
 L  c1_342_15
 L  c1_343_6
 L  c1_343_9
 L  c1_344_1
 L  c1_344_4
 L  c1_344_5
 L  c1_344_14
 L  c1_345_1
 L  c1_345_14
 L  c1_345_16
 L  c1_345_18
 L  c1_346_14
 L  c1_347_0
 L  c1_347_1
 L  c1_347_2
 L  c1_347_3
 L  c1_347_6
 L  c1_347_11
 L  c1_347_15
 L  c1_347_16
 L  c1_347_18
 L  c1_348_2
 L  c1_348_12
 L  c1_348_15
 L  c1_348_16
 L  c1_349_7
 L  c1_350_8
 L  c1_350_13
 L  c1_351_7
 L  c1_353_5
 L  c1_353_9
 L  c1_353_10
 L  c1_353_19
 L  c1_354_4
 L  c1_354_5
 L  c1_354_19
 L  c1_355_2
 L  c1_355_12
 L  c1_355_14
 L  c1_355_15
 L  c1_355_16
 L  c1_356_4
 L  c1_356_5
 L  c1_356_19
 L  c1_357_3
 L  c1_357_8
 L  c1_357_11
 L  c1_357_13
 L  c1_357_15
 L  c1_360_4
 L  c1_360_5
 L  c1_360_19
 L  c1_361_1
 L  c1_361_14
 L  c1_361_16
 L  c1_362_9
 L  c1_362_10
 L  c1_363_4
 L  c1_363_5
 L  c1_364_9
 L  c1_364_10
 L  c1_364_19
 L  c1_365_14
 L  c1_366_7
 L  c1_367_4
 L  c1_368_0
 L  c1_368_1
 L  c1_368_2
 L  c1_368_14
 L  c1_368_16
 L  c1_368_18
 L  c1_369_0
 L  c1_369_6
 L  c1_369_9
 L  c1_369_10
 L  c1_369_19
 L  c1_370_12
 L  c1_370_17
 L  c1_371_9
 L  c1_371_10
 L  c1_371_19
 L  c1_372_7
 L  c1_373_7
 L  c1_375_14
 L  c1_377_9
 L  c1_377_10
 L  c1_377_19
 L  c1_378_14
 L  c1_379_2
 L  c1_379_12
 L  c1_379_16
 L  c1_380_8
 L  c1_380_12
 L  c1_380_15
 L  c1_380_17
 L  c1_381_1
 L  c1_381_14
 L  c1_381_16
 L  c1_382_0
 L  c1_382_1
 L  c1_382_5
 L  c1_382_9
 L  c1_382_10
 L  c1_382_18
 L  c1_382_19
 L  c1_383_4
 L  c1_383_5
 L  c1_384_5
 L  c1_384_9
 L  c1_384_10
 L  c1_384_19
 L  c1_385_0
 L  c1_385_1
 L  c1_385_2
 L  c1_385_11
 L  c1_385_12
 L  c1_385_14
 L  c1_385_15
 L  c1_385_16
 L  c1_385_18
 L  c1_386_2
 L  c1_386_3
 L  c1_386_11
 L  c1_386_13
 L  c1_386_15
 L  c1_387_7
 L  c1_388_12
 L  c1_389_1
 L  c1_389_4
 L  c1_389_5
 L  c1_389_14
 L  c1_389_18
 L  c1_389_19
 L  c1_392_3
 L  c1_392_8
 L  c1_392_13
 L  c1_392_15
 L  c1_393_3
 L  c1_393_8
 L  c1_393_11
 L  c1_393_12
 L  c1_393_13
 L  c1_393_15
 L  c1_396_0
 L  c1_396_1
 L  c1_396_5
 L  c1_396_9
 L  c1_396_18
 L  c1_396_19
 L  c1_397_1
 L  c1_397_4
 L  c1_397_5
 L  c1_397_18
 L  c1_397_19
 L  c1_399_0
 L  c1_399_2
 L  c1_399_3
 L  c1_399_11
 L  c1_399_12
 L  c1_399_15
 L  c1_399_16
 L  c1_400_14
 L  c1_401_8
 L  c1_401_12
 L  c1_401_13
 L  c1_401_15
 L  c1_401_17
 L  c1_402_0
 L  c1_402_2
 L  c1_402_3
 L  c1_402_6
 L  c1_402_11
 L  c1_402_15
 L  c1_403_1
 L  c1_403_4
 L  c1_403_5
 L  c1_403_14
 L  c1_403_18
 L  c1_404_0
 L  c1_404_1
 L  c1_404_2
 L  c1_404_14
 L  c1_404_16
 L  c1_404_18
 L  c1_405_5
 L  c1_405_9
 L  c1_405_10
 L  c1_405_19
 L  c1_406_8
 L  c1_406_12
 L  c1_406_17
 L  c1_407_5
 L  c1_407_9
 L  c1_407_10
 L  c1_407_19
 L  c1_408_12
 L  c1_408_17
 L  c1_410_9
 L  c1_410_10
 L  c1_410_19
 L  c1_411_14
 L  c1_412_0
 L  c1_412_3
 L  c1_412_6
 L  c1_412_9
 L  c1_412_11
 L  c1_413_7
 L  c1_414_4
 L  c1_414_5
 L  c1_414_19
 L  c1_415_4
 L  c1_416_1
 L  c1_416_14
 L  c1_416_16
 L  c1_417_2
 L  c1_417_14
 L  c1_417_16
 L  c1_418_1
 L  c1_418_14
 L  c1_418_16
 L  c1_419_5
 L  c1_419_9
 L  c1_419_10
 L  c1_419_19
 L  c1_420_4
 L  c1_420_5
 L  c1_420_14
 L  c1_421_0
 L  c1_421_1
 L  c1_421_2
 L  c1_421_3
 L  c1_421_6
 L  c1_421_9
 L  c1_421_11
 L  c1_421_16
 L  c1_421_18
 L  c1_422_4
 L  c1_422_5
 L  c1_423_0
 L  c1_423_1
 L  c1_423_5
 L  c1_423_9
 L  c1_423_10
 L  c1_423_18
 L  c1_423_19
 L  c1_424_8
 L  c1_424_12
 L  c1_424_13
 L  c1_424_15
 L  c1_425_0
 L  c1_425_1
 L  c1_425_2
 L  c1_425_14
 L  c1_425_16
 L  c1_425_18
 L  c1_426_0
 L  c1_426_1
 L  c1_426_2
 L  c1_426_11
 L  c1_426_14
 L  c1_426_16
 L  c1_426_18
 L  c1_427_0
 L  c1_427_1
 L  c1_427_2
 L  c1_427_5
 L  c1_427_14
 L  c1_427_16
 L  c1_427_18
 L  c1_428_4
 L  c1_428_5
 L  c1_428_9
 L  c1_428_10
 L  c1_428_18
 L  c1_428_19
 L  c1_429_1
 L  c1_429_2
 L  c1_429_14
 L  c1_429_16
 L  c1_430_4
 L  c1_430_5
 L  c1_431_7
 L  c1_432_9
 L  c1_432_10
 L  c1_432_19
 L  c1_433_7
 L  c1_434_7
 L  c1_437_1
 L  c1_437_4
 L  c1_437_5
 L  c1_437_10
 L  c1_437_18
 L  c1_437_19
 L  c1_438_14
 L  c1_438_16
 L  c1_439_4
 L  c1_439_5
 L  c1_439_14
 L  c1_440_0
 L  c1_440_1
 L  c1_440_5
 L  c1_440_14
 L  c1_440_16
 L  c1_440_18
 L  c1_441_0
 L  c1_441_2
 L  c1_441_3
 L  c1_441_6
 L  c1_441_11
 L  c1_441_15
 L  c1_442_0
 L  c1_442_2
 L  c1_442_3
 L  c1_442_6
 L  c1_442_9
 L  c1_442_11
 L  c1_442_18
 L  c1_444_4
 L  c1_446_7
 L  c1_447_0
 L  c1_447_2
 L  c1_447_3
 L  c1_447_6
 L  c1_447_11
 L  c1_447_15
 L  c1_447_16
 L  c1_447_18
 L  c1_448_7
 L  c1_449_0
 L  c1_449_2
 L  c1_449_3
 L  c1_449_6
 L  c1_449_11
 L  c1_449_13
 L  c1_449_15
 L  c1_450_7
 L  c1_451_8
 L  c1_451_12
 L  c1_451_13
 L  c1_451_15
 L  c1_451_17
 L  c1_452_14
 L  c1_452_16
 L  c1_453_1
 L  c1_453_4
 L  c1_453_5
 L  c1_453_14
 L  c1_454_0
 L  c1_454_6
 L  c1_454_9
 L  c1_454_10
 L  c1_454_18
 L  c1_454_19
 L  c1_455_3
 L  c1_455_8
 L  c1_455_13
 L  c1_455_15
 L  c1_456_7
 L  c1_458_0
 L  c1_458_1
 L  c1_458_2
 L  c1_458_11
 L  c1_458_14
 L  c1_458_16
 L  c1_458_18
 L  c1_459_9
 L  c1_459_10
 L  c1_459_19
 L  c1_460_2
 L  c1_460_12
 L  c1_460_15
 L  c1_460_16
 L  c1_460_17
 L  c1_461_12
 L  c1_461_17
 L  c1_462_14
 L  c1_463_0
 L  c1_463_1
 L  c1_463_2
 L  c1_463_3
 L  c1_463_6
 L  c1_463_11
 L  c1_463_15
 L  c1_463_16
 L  c1_463_18
 L  c1_464_8
 L  c1_464_12
 L  c1_464_13
 L  c1_464_15
 L  c1_464_17
 L  c1_466_4
 L  c1_466_5
 L  c1_466_19
 L  c1_467_4
 L  c1_468_1
 L  c1_468_14
 L  c1_469_2
 L  c1_469_11
 L  c1_469_12
 L  c1_469_15
 L  c1_469_16
 L  c1_470_9
 L  c1_470_10
 L  c1_470_19
 L  c1_471_0
 L  c1_471_1
 L  c1_471_5
 L  c1_471_14
 L  c1_471_18
 L  c1_471_19
 L  c1_472_4
 L  c1_472_5
 L  c1_472_19
 L  c1_473_9
 L  c1_473_10
 L  c1_473_19
 L  c1_474_2
 L  c1_474_3
 L  c1_474_8
 L  c1_474_11
 L  c1_474_12
 L  c1_474_13
 L  c1_474_15
 L  c1_474_17
 L  c1_475_7
 L  c1_476_2
 L  c1_476_12
 L  c1_476_16
 L  c1_476_17
 L  c1_478_0
 L  c1_478_3
 L  c1_478_6
 L  c1_478_11
 L  c1_479_2
 L  c1_479_8
 L  c1_479_11
 L  c1_479_12
 L  c1_479_15
 L  c1_479_16
 L  c1_479_17
 L  c1_481_0
 L  c1_481_1
 L  c1_481_2
 L  c1_481_3
 L  c1_481_6
 L  c1_481_11
 L  c1_481_15
 L  c1_481_16
 L  c1_481_18
 L  c1_482_8
 L  c1_482_12
 L  c1_482_13
 L  c1_482_15
 L  c1_482_17
 L  c1_484_3
 L  c1_484_8
 L  c1_484_13
 L  c1_484_15
 L  c1_486_2
 L  c1_486_12
 L  c1_486_14
 L  c1_486_16
 L  c1_487_12
 L  c1_487_17
 L  c1_488_14
 L  c1_489_0
 L  c1_489_1
 L  c1_489_2
 L  c1_489_3
 L  c1_489_6
 L  c1_489_9
 L  c1_489_11
 L  c1_489_16
 L  c1_489_18
 L  c1_490_2
 L  c1_490_12
 L  c1_490_15
 L  c1_490_16
 L  c1_490_17
 L  c1_491_0
 L  c1_491_3
 L  c1_491_6
 L  c1_491_9
 L  c1_491_11
 L  c1_492_0
 L  c1_492_6
 L  c1_492_9
 L  c1_492_10
 L  c1_492_19
 L  c1_493_14
 L  c1_494_4
 L  c1_496_9
 L  c1_496_10
 L  c1_497_1
 L  c1_497_4
 L  c1_497_5
 L  c1_497_14
 L  c1_498_7
 L  c1_499_12
 L  c1_499_17
 L  c2_0
 L  c2_1
 L  c2_2
 L  c2_3
 L  c2_4
 L  c2_5
 L  c2_6
 L  c2_7
 L  c2_8
 L  c2_9
 L  c2_10
 L  c2_11
 L  c2_12
 L  c2_13
 L  c2_14
 L  c2_15
 L  c2_16
 L  c2_17
 L  c2_18
 L  c2_19
 L  c2_20
 L  c2_21
 L  c2_22
 L  c2_23
 L  c2_24
 L  c2_25
 L  c2_26
 L  c2_27
 L  c2_28
 L  c2_29
 L  c2_30
 L  c2_31
 L  c2_32
 L  c2_33
 L  c2_34
 L  c2_35
 L  c2_36
 L  c2_37
 L  c2_38
 L  c2_39
 L  c2_40
 L  c2_41
 L  c2_42
 L  c2_43
 L  c2_44
 L  c2_45
 L  c2_46
 L  c2_47
 L  c2_48
 L  c2_49
 L  c2_50
 L  c2_51
 L  c2_52
 L  c2_53
 L  c2_54
 L  c2_55
 L  c2_56
 L  c2_57
 L  c2_58
 L  c2_59
 L  c2_60
 L  c2_61
 L  c2_62
 L  c2_63
 L  c2_64
 L  c2_65
 L  c2_66
 L  c2_67
 L  c2_68
 L  c2_69
 L  c2_70
 L  c2_71
 L  c2_72
 L  c2_73
 L  c2_74
 L  c2_75
 L  c2_76
 L  c2_77
 L  c2_78
 L  c2_79
 L  c2_80
 L  c2_81
 L  c2_82
 L  c2_83
 L  c2_84
 L  c2_85
 L  c2_86
 L  c2_87
 L  c2_88
 L  c2_89
 L  c2_90
 L  c2_91
 L  c2_92
 L  c2_93
 L  c2_94
 L  c2_95
 L  c2_96
 L  c2_97
 L  c2_98
 L  c2_99
 L  c2_100
 L  c2_101
 L  c2_102
 L  c2_103
 L  c2_104
 L  c2_105
 L  c2_106
 L  c2_107
 L  c2_108
 L  c2_109
 L  c2_110
 L  c2_111
 L  c2_112
 L  c2_113
 L  c2_114
 L  c2_115
 L  c2_116
 L  c2_117
 L  c2_118
 L  c2_119
 L  c2_120
 L  c2_121
 L  c2_122
 L  c2_123
 L  c2_124
 L  c2_125
 L  c2_126
 L  c2_127
 L  c2_128
 L  c2_129
 L  c2_130
 L  c2_131
 L  c2_132
 L  c2_133
 L  c2_134
 L  c2_135
 L  c2_136
 L  c2_137
 L  c2_138
 L  c2_139
 L  c2_140
 L  c2_141
 L  c2_142
 L  c2_143
 L  c2_144
 L  c2_145
 L  c2_146
 L  c2_147
 L  c2_148
 L  c2_149
 L  c2_150
 L  c2_151
 L  c2_152
 L  c2_153
 L  c2_154
 L  c2_155
 L  c2_156
 L  c2_157
 L  c2_158
 L  c2_159
 L  c2_160
 L  c2_161
 L  c2_162
 L  c2_163
 L  c2_164
 L  c2_165
 L  c2_166
 L  c2_167
 L  c2_168
 L  c2_169
 L  c2_170
 L  c2_171
 L  c2_172
 L  c2_173
 L  c2_174
 L  c2_175
 L  c2_176
 L  c2_177
 L  c2_178
 L  c2_179
 L  c2_180
 L  c2_181
 L  c2_182
 L  c2_183
 L  c2_184
 L  c2_185
 L  c2_186
 L  c2_187
 L  c2_188
 L  c2_189
 L  c2_190
 L  c2_191
 L  c2_192
 L  c2_193
 L  c2_194
 L  c2_195
 L  c2_196
 L  c2_197
 L  c2_198
 L  c2_199
 L  c2_200
 L  c2_201
 L  c2_202
 L  c2_203
 L  c2_204
 L  c2_205
 L  c2_206
 L  c2_207
 L  c2_208
 L  c2_209
 L  c2_210
 L  c2_211
 L  c2_212
 L  c2_213
 L  c2_214
 L  c2_215
 L  c2_216
 L  c2_217
 L  c2_218
 L  c2_219
 L  c2_220
 L  c2_221
 L  c2_222
 L  c2_223
 L  c2_224
 L  c2_225
 L  c2_226
 L  c2_227
 L  c2_228
 L  c2_229
 L  c2_230
 L  c2_231
 L  c2_232
 L  c2_233
 L  c2_234
 L  c2_235
 L  c2_236
 L  c2_237
 L  c2_238
 L  c2_239
 L  c2_240
 L  c2_241
 L  c2_242
 L  c2_243
 L  c2_244
 L  c2_245
 L  c2_246
 L  c2_247
 L  c2_248
 L  c2_249
 L  c2_250
 L  c2_251
 L  c2_252
 L  c2_253
 L  c2_254
 L  c2_255
 L  c2_256
 L  c2_257
 L  c2_258
 L  c2_259
 L  c2_260
 L  c2_261
 L  c2_262
 L  c2_263
 L  c2_264
 L  c2_265
 L  c2_266
 L  c2_267
 L  c2_268
 L  c2_269
 L  c2_270
 L  c2_271
 L  c2_272
 L  c2_273
 L  c2_274
 L  c2_275
 L  c2_276
 L  c2_277
 L  c2_278
 L  c2_279
 L  c2_280
 L  c2_281
 L  c2_282
 L  c2_283
 L  c2_284
 L  c2_285
 L  c2_286
 L  c2_287
 L  c2_288
 L  c2_289
 L  c2_290
 L  c2_291
 L  c2_292
 L  c2_293
 L  c2_294
 L  c2_295
 L  c2_296
 L  c2_297
 L  c2_298
 L  c2_299
 L  c2_300
 L  c2_301
 L  c2_302
 L  c2_303
 L  c2_304
 L  c2_305
 L  c2_306
 L  c2_307
 L  c2_308
 L  c2_309
 L  c2_310
 L  c2_311
 L  c2_312
 L  c2_313
 L  c2_314
 L  c2_315
 L  c2_316
 L  c2_317
 L  c2_318
 L  c2_319
 L  c2_320
 L  c2_321
 L  c2_322
 L  c2_323
 L  c2_324
 L  c2_325
 L  c2_326
 L  c2_327
 L  c2_328
 L  c2_329
 L  c2_330
 L  c2_331
 L  c2_332
 L  c2_333
 L  c2_334
 L  c2_335
 L  c2_336
 L  c2_337
 L  c2_338
 L  c2_339
 L  c2_340
 L  c2_341
 L  c2_342
 L  c2_343
 L  c2_344
 L  c2_345
 L  c2_346
 L  c2_347
 L  c2_348
 L  c2_349
 L  c2_350
 L  c2_351
 L  c2_352
 L  c2_353
 L  c2_354
 L  c2_355
 L  c2_356
 L  c2_357
 L  c2_358
 L  c2_359
 L  c2_360
 L  c2_361
 L  c2_362
 L  c2_363
 L  c2_364
 L  c2_365
 L  c2_366
 L  c2_367
 L  c2_368
 L  c2_369
 L  c2_370
 L  c2_371
 L  c2_372
 L  c2_373
 L  c2_374
 L  c2_375
 L  c2_376
 L  c2_377
 L  c2_378
 L  c2_379
 L  c2_380
 L  c2_381
 L  c2_382
 L  c2_383
 L  c2_384
 L  c2_385
 L  c2_386
 L  c2_387
 L  c2_388
 L  c2_389
 L  c2_390
 L  c2_391
 L  c2_392
 L  c2_393
 L  c2_394
 L  c2_395
 L  c2_396
 L  c2_397
 L  c2_398
 L  c2_399
 L  c2_400
 L  c2_401
 L  c2_402
 L  c2_403
 L  c2_404
 L  c2_405
 L  c2_406
 L  c2_407
 L  c2_408
 L  c2_409
 L  c2_410
 L  c2_411
 L  c2_412
 L  c2_413
 L  c2_414
 L  c2_415
 L  c2_416
 L  c2_417
 L  c2_418
 L  c2_419
 L  c2_420
 L  c2_421
 L  c2_422
 L  c2_423
 L  c2_424
 L  c2_425
 L  c2_426
 L  c2_427
 L  c2_428
 L  c2_429
 L  c2_430
 L  c2_431
 L  c2_432
 L  c2_433
 L  c2_434
 L  c2_435
 L  c2_436
 L  c2_437
 L  c2_438
 L  c2_439
 L  c2_440
 L  c2_441
 L  c2_442
 L  c2_443
 L  c2_444
 L  c2_445
 L  c2_446
 L  c2_447
 L  c2_448
 L  c2_449
 L  c2_450
 L  c2_451
 L  c2_452
 L  c2_453
 L  c2_454
 L  c2_455
 L  c2_456
 L  c2_457
 L  c2_458
 L  c2_459
 L  c2_460
 L  c2_461
 L  c2_462
 L  c2_463
 L  c2_464
 L  c2_465
 L  c2_466
 L  c2_467
 L  c2_468
 L  c2_469
 L  c2_470
 L  c2_471
 L  c2_472
 L  c2_473
 L  c2_474
 L  c2_475
 L  c2_476
 L  c2_477
 L  c2_478
 L  c2_479
 L  c2_480
 L  c2_481
 L  c2_482
 L  c2_483
 L  c2_484
 L  c2_485
 L  c2_486
 L  c2_487
 L  c2_488
 L  c2_489
 L  c2_490
 L  c2_491
 L  c2_492
 L  c2_493
 L  c2_494
 L  c2_495
 L  c2_496
 L  c2_497
 L  c2_498
 L  c2_499
 L  budget
 L  link0
 L  link1
 L  link2
 L  link3
 L  link4
 L  link5
 L  link6
 L  link7
 L  link8
 L  link9
 L  link10
 L  link11
 L  link12
 L  link13
 L  link14
 L  link15
 L  link16
 L  link17
 L  link18
 L  link19
COLUMNS
    MARKER                'MARKER'                 'INTORG'
    x0          obj         1.0                       link0       1.0
    x1          obj         1.0                       link1       1.0
    x2          obj         1.0                       link2       1.0
    x3          obj         1.0                       link3       1.0
    x4          obj         1.0                       link4       1.0
    x5          obj         1.0                       link5       1.0
    x6          obj         1.0                       link6       1.0
    x7          obj         1.0                       link7       1.0
    x8          obj         1.0                       link8       1.0
    x9          obj         1.0                       link9       1.0
    x10         obj         1.0                       link10      1.0
    x11         obj         1.0                       link11      1.0
    x12         obj         1.0                       link12      1.0
    x13         obj         1.0                       link13      1.0
    x14         obj         1.0                       link14      1.0
    x15         obj         1.0                       link15      1.0
    x16         obj         1.0                       link16      1.0
    x17         obj         1.0                       link17      1.0
    x18         obj         1.0                       link18      1.0
    x19         obj         1.0                       link19      1.0
    y0          c1_2_0      0.0                       c1_24_0     0.7098299806519184
    y0          c1_25_0     0.7828670880221626        c1_33_0     0.2133472538554061
    y0          c1_35_0     0.38745611221615806       c1_42_0     0.3844637122913236
    y0          c1_47_0     0.0                       c1_48_0     0.0
    y0          c1_51_0     0.6821420372044258        c1_52_0     0.845014986483902
    y0          c1_61_0     0.765216444296465         c1_73_0     0.0
    y0          c1_80_0     0.791222304534112         c1_84_0     0.5173229788078586
    y0          c1_89_0     0.0                       c1_90_0     0.4781737689611969
    y0          c1_106_0    0.723698385979352         c1_108_0    0.0
    y0          c1_112_0    0.09326164545410609       c1_119_0    0.49454588804851163
    y0          c1_124_0    0.0                       c1_138_0    0.650283110803098
    y0          c1_143_0    0.03753113142725939       c1_147_0    0.7924313201840432
    y0          c1_154_0    0.8152806303003372        c1_156_0    0.788462326677148
    y0          c1_157_0    0.0                       c1_161_0    0.8466292766206811
    y0          c1_166_0    0.7375390529928241        c1_169_0    0.26414807054866696
    y0          c1_180_0    0.8504825914765064        c1_192_0    0.8046734878414914
    y0          c1_200_0    0.726720846680337         c1_209_0    0.8171724615397347
    y0          c1_211_0    0.48615469041344483       c1_215_0    0.7726514993437428
    y0          c1_216_0    0.4593278819689979        c1_223_0    0.8127124197012657
    y0          c1_231_0    0.0                       c1_236_0    0.5998924060171319
    y0          c1_237_0    0.0                       c1_239_0    0.6723639632727403
    y0          c1_243_0    0.6723845413853178        c1_248_0    0.0
    y0          c1_249_0    0.8594245292915932        c1_251_0    0.04731399828867966
    y0          c1_253_0    0.48443919888066844       c1_256_0    0.7376116450572634
    y0          c1_259_0    0.5544124343315766        c1_262_0    0.693754222499845
    y0          c1_263_0    0.6749384678904122        c1_269_0    0.7200713112365367
    y0          c1_275_0    0.8601551450012953        c1_276_0    0.7418865034973862
    y0          c1_282_0    0.811635083115568         c1_288_0    0.0
    y0          c1_290_0    0.6152953855242349        c1_291_0    0.0
    y0          c1_293_0    0.7124010783169015        c1_296_0    0.7494917440061994
    y0          c1_299_0    0.0                       c1_303_0    0.19905164417886612
    y0          c1_305_0    0.14131943173426187       c1_310_0    0.5674399341868894
    y0          c1_314_0    0.5153395487905474        c1_318_0    0.830310913386939
    y0          c1_323_0    0.45733339788408056       c1_329_0    0.0
    y0          c1_338_0    0.7271772182094385        c1_339_0    0.6838611087415599
    y0          c1_342_0    0.7506363734694816        c1_347_0    0.0
    y0          c1_368_0    0.801261316161157         c1_369_0    0.8573746976406434
    y0          c1_382_0    0.8518251034295883        c1_385_0    0.6973751005028634
    y0          c1_396_0    0.6047504371619534        c1_399_0    0.8410037451886463
    y0          c1_402_0    0.5283173129071214        c1_404_0    0.8625138225242275
    y0          c1_412_0    0.8345642591777427        c1_421_0    0.0
    y0          c1_423_0    0.7395478044333674        c1_425_0    0.8333066163019779
    y0          c1_426_0    0.4907654524842431        c1_427_0    0.7610060491643911
    y0          c1_440_0    0.7496583860674618        c1_441_0    0.6130325738863092
    y0          c1_442_0    0.0                       c1_447_0    0.0
    y0          c1_449_0    0.79748667278691          c1_454_0    0.6587383166441256
    y0          c1_458_0    0.6581539085972099        c1_463_0    0.0
    y0          c1_471_0    0.7808835894776276        c1_478_0    0.7501044256980496
    y0          c1_481_0    0.0                       c1_489_0    0.0
    y0          c1_491_0    0.8272589861601621        c1_492_0    0.8618598304436444
    y0          c2_2        -1.0                      c2_24       -0.29017001934808156
    y0          c2_25       -0.2171329119778373       c2_33       -0.7866527461445939
    y0          c2_35       -0.612543887783842        c2_42       -0.6155362877086764
    y0          c2_47       -1.0                      c2_48       -1.0
    y0          c2_51       -0.3178579627955742       c2_52       -0.15498501351609792
    y0          c2_61       -0.234783555703535        c2_73       -1.0
    y0          c2_80       -0.20877769546588804      c2_84       -0.48267702119214134
    y0          c2_89       -1.0                      c2_90       -0.5218262310388031
    y0          c2_106      -0.27630161402064796      c2_108      -1.0
    y0          c2_112      -0.9067383545458939       c2_119      -0.5054541119514884
    y0          c2_124      -1.0                      c2_138      -0.34971688919690197
    y0          c2_143      -0.9624688685727406       c2_147      -0.20756867981595678
    y0          c2_154      -0.18471936969966282      c2_156      -0.21153767332285198
    y0          c2_157      -1.0                      c2_161      -0.15337072337931884
    y0          c2_166      -0.2624609470071759       c2_169      -0.735851929451333
    y0          c2_180      -0.1495174085234936       c2_192      -0.1953265121585086
    y0          c2_200      -0.273279153319663        c2_209      -0.18282753846026528
    y0          c2_211      -0.5138453095865552       c2_215      -0.22734850065625728
    y0          c2_216      -0.5406721180310021       c2_223      -0.18728758029873424
    y0          c2_231      -1.0                      c2_236      -0.4001075939828681
    y0          c2_237      -1.0                      c2_239      -0.32763603672725977
    y0          c2_243      -0.32761545861468216      c2_248      -1.0
    y0          c2_249      -0.14057547070840687      c2_251      -0.9526860017113203
    y0          c2_253      -0.5155608011193316       c2_256      -0.26238835494273655
    y0          c2_259      -0.44558756566842334      c2_262      -0.30624577750015497
    y0          c2_263      -0.3250615321095877       c2_269      -0.27992868876346333
    y0          c2_275      -0.13984485499870467      c2_276      -0.25811349650261384
    y0          c2_282      -0.188364916884432        c2_288      -1.0
    y0          c2_290      -0.38470461447576504      c2_291      -1.0
    y0          c2_293      -0.2875989216830986       c2_296      -0.2505082559938006
    y0          c2_299      -1.0                      c2_303      -0.8009483558211339
    y0          c2_305      -0.8586805682657381       c2_310      -0.43256006581311063
    y0          c2_314      -0.4846604512094525       c2_318      -0.16968908661306106
    y0          c2_323      -0.5426666021159194       c2_329      -1.0
    y0          c2_338      -0.2728227817905616       c2_339      -0.3161388912584401
    y0          c2_342      -0.24936362653051833      c2_347      -1.0
    y0          c2_368      -0.19873868383884294      c2_369      -0.14262530235935653
    y0          c2_382      -0.14817489657041172      c2_385      -0.3026248994971365
    y0          c2_396      -0.3952495628380466       c2_399      -0.1589962548113537
    y0          c2_402      -0.47168268709287864      c2_404      -0.13748617747577255
    y0          c2_412      -0.16543574082225726      c2_421      -1.0
    y0          c2_423      -0.26045219556663257      c2_425      -0.16669338369802214
    y0          c2_426      -0.5092345475157569       c2_427      -0.23899395083560895
    y0          c2_440      -0.2503416139325382       c2_441      -0.3869674261136909
    y0          c2_442      -1.0                      c2_447      -1.0
    y0          c2_449      -0.20251332721309004      c2_454      -0.3412616833558744
    y0          c2_458      -0.34184609140279004      c2_463      -1.0
    y0          c2_471      -0.21911641052237235      c2_478      -0.24989557430195042
    y0          c2_481      -1.0                      c2_489      -1.0
    y0          c2_491      -0.17274101383983784      c2_492      -0.13814016955635558
    y0          budget      1.0                       link0       1.0
    y1          c1_0_1      0.8634937056524671        c1_2_1      0.11003890598023747
    y1          c1_5_1      0.0                       c1_33_1     0.0
    y1          c1_36_1     0.8626380981797919        c1_37_1     0.8458198806890633
    y1          c1_40_1     0.0                       c1_42_1     0.5673400184537492
    y1          c1_44_1     0.8530842099552206        c1_45_1     0.0
    y1          c1_47_1     0.0                       c1_48_1     0.0
    y1          c1_49_1     0.0                       c1_52_1     0.8463357474973163
    y1          c1_58_1     0.6637036389937236        c1_60_1     0.0
    y1          c1_73_1     0.0                       c1_74_1     0.8622372768118586
    y1          c1_77_1     0.18799861952473318       c1_83_1     0.0
    y1          c1_98_1     0.8058926915107605        c1_102_1    0.5564327148003514
    y1          c1_106_1    0.851943979215879         c1_108_1    0.0
    y1          c1_112_1    0.8248591101306342        c1_124_1    0.11661279471590269
    y1          c1_138_1    0.5227750423558175        c1_143_1    0.4307757204889696
    y1          c1_153_1    0.8324552056117569        c1_156_1    0.4715363077183645
    y1          c1_157_1    0.2428898312277442        c1_161_1    0.0
    y1          c1_163_1    0.5711224708939544        c1_165_1    0.7912799643733105
    y1          c1_166_1    0.4957641494044994        c1_169_1    0.24188260347440516
    y1          c1_174_1    0.2066096215066191        c1_192_1    0.0
    y1          c1_197_1    0.19706502406383197       c1_198_1    0.855450342330943
    y1          c1_199_1    0.3908921649781729        c1_228_1    0.6608843687743511
    y1          c1_231_1    0.7271809376094561        c1_236_1    0.5915117474528417
    y1          c1_237_1    0.394710706317562         c1_246_1    0.8643812278923277
    y1          c1_248_1    0.25047147896488364       c1_251_1    0.0
    y1          c1_254_1    0.7671607126715091        c1_256_1    0.35580042820042124
    y1          c1_276_1    0.0                       c1_278_1    0.8307719416188595
    y1          c1_282_1    0.0                       c1_284_1    0.619440729687077
    y1          c1_285_1    0.835805081499523         c1_288_1    0.0
    y1          c1_293_1    0.7392033856799853        c1_296_1    0.44019652274850696
    y1          c1_299_1    0.6372729885008163        c1_303_1    0.07890244419090053
    y1          c1_305_1    0.0                       c1_312_1    0.8161479404416533
    y1          c1_313_1    0.6908743255745979        c1_314_1    0.1687325902755592
    y1          c1_315_1    0.7754746718898186        c1_317_1    0.8126843621519468
    y1          c1_318_1    0.0                       c1_323_1    0.021899349314219996
    y1          c1_326_1    0.2898230562673617        c1_327_1    0.6105770877708694
    y1          c1_336_1    0.5868233675202665        c1_338_1    0.42816410682747974
    y1          c1_344_1    0.794402711063796         c1_345_1    0.6140747617600049
    y1          c1_347_1    0.45332196367876354       c1_361_1    0.8547068924084521
    y1          c1_368_1    0.3102561627481416        c1_381_1    0.8426962438051186
    y1          c1_382_1    0.8588779185410793        c1_385_1    0.8437186299059761
    y1          c1_389_1    0.14271675694808528       c1_396_1    0.28448917162477827
    y1          c1_397_1    0.7241374388409214        c1_403_1    0.5588714967384019
    y1          c1_404_1    0.7693035253137339        c1_416_1    0.7639332758176167
    y1          c1_418_1    0.8336466973438235        c1_421_1    0.7844322014409362
    y1          c1_423_1    0.8374518591783386        c1_425_1    0.43761718315701204
    y1          c1_426_1    0.28921625261826245       c1_427_1    0.0
    y1          c1_429_1    0.7940716149324635        c1_437_1    0.8539836240139322
    y1          c1_440_1    0.0                       c1_453_1    0.7946968298671431
    y1          c1_458_1    0.0                       c1_463_1    0.7297548816216983
    y1          c1_468_1    0.8581261188843031        c1_471_1    0.0
    y1          c1_481_1    0.6702616003206543        c1_489_1    0.6777819961452018
    y1          c1_497_1    0.7550766382066322        c2_0        -0.13650629434753292
    y1          c2_2        -0.8899610940197625       c2_5        -1.0
    y1          c2_33       -1.0                      c2_36       -0.13736190182020816
    y1          c2_37       -0.15418011931093673      c2_40       -1.0
    y1          c2_42       -0.4326599815462508       c2_44       -0.14691579004477942
    y1          c2_45       -1.0                      c2_47       -1.0
    y1          c2_48       -1.0                      c2_49       -1.0
    y1          c2_52       -0.15366425250268362      c2_58       -0.3362963610062763
    y1          c2_60       -1.0                      c2_73       -1.0
    y1          c2_74       -0.1377627231881414       c2_77       -0.8120013804752668
    y1          c2_83       -1.0                      c2_98       -0.19410730848923957
    y1          c2_102      -0.44356728519964866      c2_106      -0.14805602078412097
    y1          c2_108      -1.0                      c2_112      -0.17514088986936588
    y1          c2_124      -0.8833872052840973       c2_138      -0.4772249576441825
    y1          c2_143      -0.5692242795110304       c2_153      -0.16754479438824305
    y1          c2_156      -0.5284636922816355       c2_157      -0.7571101687722558
    y1          c2_161      -1.0                      c2_163      -0.42887752910604565
    y1          c2_165      -0.20872003562668953      c2_166      -0.5042358505955006
    y1          c2_169      -0.7581173965255948       c2_174      -0.7933903784933809
    y1          c2_192      -1.0                      c2_197      -0.802934975936168
    y1          c2_198      -0.14454965766905703      c2_199      -0.6091078350218271
    y1          c2_228      -0.3391156312256489       c2_231      -0.2728190623905439
    y1          c2_236      -0.40848825254715826      c2_237      -0.605289293682438
    y1          c2_246      -0.1356187721076722       c2_248      -0.7495285210351164
    y1          c2_251      -1.0                      c2_254      -0.23283928732849093
    y1          c2_256      -0.6441995717995788       c2_276      -1.0
    y1          c2_278      -0.16922805838114052      c2_282      -1.0
    y1          c2_284      -0.380559270312923        c2_285      -0.16419491850047702
    y1          c2_288      -1.0                      c2_293      -0.26079661432001466
    y1          c2_296      -0.559803477251493        c2_299      -0.36272701149918374
    y1          c2_303      -0.9210975558090995       c2_305      -1.0
    y1          c2_312      -0.1838520595583467       c2_313      -0.30912567442540206
    y1          c2_314      -0.8312674097244408       c2_315      -0.22452532811018144
    y1          c2_317      -0.1873156378480531       c2_318      -1.0
    y1          c2_323      -0.97810065068578         c2_326      -0.7101769437326383
    y1          c2_327      -0.38942291222913056      c2_336      -0.41317663247973346
    y1          c2_338      -0.5718358931725203       c2_344      -0.20559728893620402
    y1          c2_345      -0.38592523823999514      c2_347      -0.5466780363212365
    y1          c2_361      -0.14529310759154793      c2_368      -0.6897438372518584
    y1          c2_381      -0.1573037561948814       c2_382      -0.14112208145892072
    y1          c2_385      -0.15628137009402387      c2_389      -0.8572832430519147
    y1          c2_396      -0.7155108283752217       c2_397      -0.2758625611590786
    y1          c2_403      -0.4411285032615981       c2_404      -0.23069647468626614
    y1          c2_416      -0.23606672418238325      c2_418      -0.16635330265617648
    y1          c2_421      -0.21556779855906377      c2_423      -0.16254814082166133
    y1          c2_425      -0.562382816842988        c2_426      -0.7107837473817376
    y1          c2_427      -1.0                      c2_429      -0.20592838506753655
    y1          c2_437      -0.14601637598606773      c2_440      -1.0
    y1          c2_453      -0.20530317013285695      c2_458      -1.0
    y1          c2_463      -0.27024511837830173      c2_468      -0.14187388111569685
    y1          c2_471      -1.0                      c2_481      -0.32973839967934576
    y1          c2_489      -0.3222180038547982       c2_497      -0.24492336179336785
    y1          budget      1.0                       link1       1.0
    y2          c1_0_2      0.7212282354667673        c1_2_2      0.8109073347081013
    y2          c1_5_2      0.8360012059846277        c1_20_2     0.8378040501942572
    y2          c1_25_2     0.0                       c1_32_2     0.5614919991378621
    y2          c1_33_2     0.5308320022174063        c1_35_2     0.6423687446167691
    y2          c1_42_2     0.0                       c1_47_2     0.29157189588400556
    y2          c1_48_2     0.23103721298052715       c1_51_2     0.8163972154775345
    y2          c1_56_2     0.8568360986020338        c1_70_2     0.850675939355477
    y2          c1_73_2     0.0                       c1_80_2     0.0
    y2          c1_89_2     0.8203467417212013        c1_91_2     0.7006322799850473
    y2          c1_98_2     0.5655715331835515        c1_99_2     0.30444115966337937
    y2          c1_108_2    0.127908473735593         c1_113_2    0.2652998386676857
    y2          c1_120_2    0.8024249208974583        c1_124_2    0.0
    y2          c1_138_2    0.0                       c1_142_2    0.8241274538113169
    y2          c1_143_2    0.8598720764197572        c1_156_2    0.03985456685485922
    y2          c1_157_2    0.0                       c1_161_2    0.7431221742325951
    y2          c1_169_2    0.0                       c1_176_2    0.8541805171523625
    y2          c1_192_2    0.8622312125114441        c1_195_2    0.5252060099942356
    y2          c1_196_2    0.49371472569673824       c1_197_2    0.8004116469315168
    y2          c1_200_2    0.5935445064698334        c1_211_2    0.0
    y2          c1_223_2    0.8334068307823592        c1_225_2    0.31144206926551865
    y2          c1_228_2    0.8161467982758006        c1_229_2    0.744549690767426
    y2          c1_231_2    0.1692534362621113        c1_234_2    0.8555298664397463
    y2          c1_237_2    0.6784631654770273        c1_248_2    0.34195379221869693
    y2          c1_251_2    0.544444511506981         c1_256_2    0.0
    y2          c1_269_2    0.856940934283476         c1_270_2    0.8588536160193347
    y2          c1_278_2    0.5441895764934517        c1_282_2    0.8236700561132985
    y2          c1_288_2    0.40457187953683404       c1_290_2    0.0
    y2          c1_296_2    0.0                       c1_299_2    0.5948860089398562
    y2          c1_303_2    0.8537713022502089        c1_305_2    0.0
    y2          c1_310_2    0.6891553971394792        c1_312_2    0.8179062385445672
    y2          c1_315_2    0.7085696510355723        c1_326_2    0.863374724614782
    y2          c1_329_2    0.7207866252402634        c1_338_2    0.0
    y2          c1_339_2    0.27277373053782905       c1_342_2    0.7808968758978803
    y2          c1_347_2    0.0                       c1_348_2    0.5738255093648306
    y2          c1_355_2    0.29321955465517313       c1_368_2    0.27488992269592927
    y2          c1_379_2    0.790507932431625         c1_385_2    0.0
    y2          c1_386_2    0.862168723898279         c1_399_2    0.1966144541114958
    y2          c1_402_2    0.8026374393827025        c1_404_2    0.08936521170897505
    y2          c1_417_2    0.7509648420338051        c1_421_2    0.6520343362556759
    y2          c1_425_2    0.3342811143970216        c1_426_2    0.0
    y2          c1_427_2    0.8172448054096597        c1_429_2    0.7664042786525996
    y2          c1_441_2    0.8559962188793366        c1_442_2    0.7410198973523708
    y2          c1_447_2    0.5159765960969431        c1_449_2    0.58645538136786
    y2          c1_458_2    0.03877862961292433       c1_460_2    0.6579142455772891
    y2          c1_463_2    0.0                       c1_469_2    0.0
    y2          c1_474_2    0.811003019612386         c1_476_2    0.7942692889982409
    y2          c1_479_2    0.6180391293771184        c1_481_2    0.0
    y2          c1_486_2    0.7759681950329349        c1_489_2    0.6142186031411034
    y2          c1_490_2    0.5695579713959155        c2_0        -0.2787717645332327
    y2          c2_2        -0.1890926652918987       c2_5        -0.1639987940153723
    y2          c2_20       -0.16219594980574287      c2_25       -1.0
    y2          c2_32       -0.4385080008621379       c2_33       -0.46916799778259366
    y2          c2_35       -0.35763125538323093      c2_42       -1.0
    y2          c2_47       -0.7084281041159944       c2_48       -0.7689627870194728
    y2          c2_51       -0.18360278452246553      c2_56       -0.14316390139796617
    y2          c2_70       -0.14932406064452303      c2_73       -1.0
    y2          c2_80       -1.0                      c2_89       -0.17965325827879872
    y2          c2_91       -0.29936772001495265      c2_98       -0.43442846681644853
    y2          c2_99       -0.6955588403366206       c2_108      -0.872091526264407
    y2          c2_113      -0.7347001613323143       c2_120      -0.19757507910254168
    y2          c2_124      -1.0                      c2_138      -1.0
    y2          c2_142      -0.1758725461886831       c2_143      -0.1401279235802428
    y2          c2_156      -0.9601454331451408       c2_157      -1.0
    y2          c2_161      -0.2568778257674049       c2_169      -1.0
    y2          c2_176      -0.14581948284763746      c2_192      -0.13776878748855592
    y2          c2_195      -0.4747939900057644       c2_196      -0.5062852743032618
    y2          c2_197      -0.19958835306848324      c2_200      -0.40645549353016663
    y2          c2_211      -1.0                      c2_223      -0.16659316921764072
    y2          c2_225      -0.6885579307344813       c2_228      -0.18385320172419942
    y2          c2_229      -0.25545030923257395      c2_231      -0.8307465637378887
    y2          c2_234      -0.14447013356025376      c2_237      -0.32153683452297266
    y2          c2_248      -0.6580462077813031       c2_251      -0.45555548849301897
    y2          c2_256      -1.0                      c2_269      -0.14305906571652408
    y2          c2_270      -0.14114638398066526      c2_278      -0.4558104235065483
    y2          c2_282      -0.17632994388670156      c2_288      -0.595428120463166
    y2          c2_290      -1.0                      c2_296      -1.0
    y2          c2_299      -0.40511399106014373      c2_303      -0.14622869774979103
    y2          c2_305      -1.0                      c2_310      -0.31084460286052085
    y2          c2_312      -0.1820937614554328       c2_315      -0.29143034896442765
    y2          c2_326      -0.136625275385218        c2_329      -0.2792133747597366
    y2          c2_338      -1.0                      c2_339      -0.727226269462171
    y2          c2_342      -0.2191031241021198       c2_347      -1.0
    y2          c2_348      -0.42617449063516943      c2_355      -0.7067804453448269
    y2          c2_368      -0.7251100773040707       c2_379      -0.209492067568375
    y2          c2_385      -1.0                      c2_386      -0.137831276101721
    y2          c2_399      -0.8033855458885042       c2_402      -0.19736256061729746
    y2          c2_404      -0.910634788291025        c2_417      -0.24903515796619494
    y2          c2_421      -0.34796566374432414      c2_425      -0.6657188856029784
    y2          c2_426      -1.0                      c2_427      -0.18275519459034026
    y2          c2_429      -0.23359572134740036      c2_441      -0.1440037811206634
    y2          c2_442      -0.25898010264762916      c2_447      -0.4840234039030569
    y2          c2_449      -0.41354461863214         c2_458      -0.9612213703870757
    y2          c2_460      -0.34208575442271094      c2_463      -1.0
    y2          c2_469      -1.0                      c2_474      -0.188996980387614
    y2          c2_476      -0.20573071100175913      c2_479      -0.3819608706228816
    y2          c2_481      -1.0                      c2_486      -0.2240318049670651
    y2          c2_489      -0.3857813968588966       c2_490      -0.43044202860408454
    y2          budget      1.0                       link2       1.0
    y3          c1_24_3     0.13959987933553208       c1_25_3     0.8362875316236981
    y3          c1_34_3     0.7394753381392907        c1_35_3     0.0
    y3          c1_51_3     0.0                       c1_68_3     0.0
    y3          c1_76_3     0.8431663411056453        c1_80_3     0.7737707238404999
    y3          c1_84_3     0.0                       c1_89_3     0.3543730439741044
    y3          c1_90_3     0.5873736578369628        c1_91_3     0.5656847002116514
    y3          c1_92_3     0.848704898615007         c1_105_3    0.0
    y3          c1_112_3    0.8402896267912643        c1_116_3    0.0
    y3          c1_117_3    0.7008013749791937        c1_119_3    0.5953673632025022
    y3          c1_120_3    0.23023317417609213       c1_124_3    0.848833317120148
    y3          c1_154_3    0.2823619377601785        c1_157_3    0.7735065564884372
    y3          c1_159_3    0.0                       c1_160_3    0.8281798887783599
    y3          c1_176_3    0.5318870107337906        c1_180_3    0.0
    y3          c1_200_3    0.0                       c1_205_3    0.4486390319226353
    y3          c1_211_3    0.2921287985205394        c1_215_3    0.0
    y3          c1_216_3    0.6205221773314249        c1_223_3    0.0
    y3          c1_231_3    0.3876793642536348        c1_232_3    0.0
    y3          c1_237_3    0.847812596662304         c1_239_3    0.795004258578596
    y3          c1_243_3    0.0                       c1_248_3    0.801155595392795
    y3          c1_249_3    0.8017720902727846        c1_259_3    0.5445853738782794
    y3          c1_262_3    0.0                       c1_263_3    0.0
    y3          c1_269_3    0.0                       c1_277_3    0.4256545946044442
    y3          c1_279_3    0.0                       c1_289_3    0.0
    y3          c1_290_3    0.5770776536560256        c1_291_3    0.7059336001765646
    y3          c1_299_3    0.688534960113204         c1_309_3    0.0
    y3          c1_310_3    0.0                       c1_329_3    0.0
    y3          c1_339_3    0.11116579211295374       c1_342_3    0.0
    y3          c1_347_3    0.7191535857668778        c1_357_3    0.431515779646759
    y3          c1_386_3    0.22150932061961615       c1_392_3    0.7754271759491453
    y3          c1_393_3    0.7459843545385856        c1_399_3    0.7597417014873549
    y3          c1_402_3    0.0                       c1_412_3    0.48535917747702506
    y3          c1_421_3    0.5015798579859285        c1_441_3    0.0
    y3          c1_442_3    0.00773153775531199       c1_447_3    0.0
    y3          c1_449_3    0.0                       c1_455_3    0.7814961460181166
    y3          c1_463_3    0.4061963617082549        c1_474_3    0.8367347903467544
    y3          c1_478_3    0.0                       c1_481_3    0.5526102433278375
    y3          c1_484_3    0.7354416565495397        c1_489_3    0.6584899133742734
    y3          c1_491_3    0.682691480502531         c2_24       -0.8604001206644679
    y3          c2_25       -0.16371246837630196      c2_34       -0.26052466186070933
    y3          c2_35       -1.0                      c2_51       -1.0
    y3          c2_68       -1.0                      c2_76       -0.15683365889435472
    y3          c2_80       -0.22622927615950003      c2_84       -1.0
    y3          c2_89       -0.6456269560258956       c2_90       -0.41262634216303723
    y3          c2_91       -0.4343152997883486       c2_92       -0.15129510138499305
    y3          c2_105      -1.0                      c2_112      -0.15971037320873577
    y3          c2_116      -1.0                      c2_117      -0.29919862502080635
    y3          c2_119      -0.40463263679749784      c2_120      -0.7697668258239079
    y3          c2_124      -0.151166682879852        c2_154      -0.7176380622398215
    y3          c2_157      -0.22649344351156275      c2_159      -1.0
    y3          c2_160      -0.1718201112216401       c2_176      -0.46811298926620937
    y3          c2_180      -1.0                      c2_200      -1.0
    y3          c2_205      -0.5513609680773647       c2_211      -0.7078712014794606
    y3          c2_215      -1.0                      c2_216      -0.37947782266857516
    y3          c2_223      -1.0                      c2_231      -0.6123206357463652
    y3          c2_232      -1.0                      c2_237      -0.15218740333769593
    y3          c2_239      -0.20499574142140398      c2_243      -1.0
    y3          c2_248      -0.198844404607205        c2_249      -0.19822790972721535
    y3          c2_259      -0.45541462612172057      c2_262      -1.0
    y3          c2_263      -1.0                      c2_269      -1.0
    y3          c2_277      -0.5743454053955558       c2_279      -1.0
    y3          c2_289      -1.0                      c2_290      -0.42292234634397435
    y3          c2_291      -0.29406639982343535      c2_299      -0.31146503988679597
    y3          c2_309      -1.0                      c2_310      -1.0
    y3          c2_329      -1.0                      c2_339      -0.8888342078870463
    y3          c2_342      -1.0                      c2_347      -0.28084641423312223
    y3          c2_357      -0.568484220353241        c2_386      -0.7784906793803839
    y3          c2_392      -0.22457282405085463      c2_393      -0.25401564546141436
    y3          c2_399      -0.2402582985126451       c2_402      -1.0
    y3          c2_412      -0.5146408225229749       c2_421      -0.4984201420140714
    y3          c2_441      -1.0                      c2_442      -0.992268462244688
    y3          c2_447      -1.0                      c2_449      -1.0
    y3          c2_455      -0.21850385398188343      c2_463      -0.5938036382917451
    y3          c2_474      -0.16326520965324567      c2_478      -1.0
    y3          c2_481      -0.4473897566721626       c2_484      -0.26455834345046025
    y3          c2_489      -0.3415100866257266       c2_491      -0.317308519497469
    y3          budget      1.0                       link3       1.0
    y4          c1_15_4     0.0                       c1_16_4     0.7346927512016077
    y4          c1_37_4     0.22624448850986123       c1_38_4     0.703440983457345
    y4          c1_40_4     0.8632235026408075        c1_41_4     0.8519023433867706
    y4          c1_50_4     0.0                       c1_58_4     0.8061734736646292
    y4          c1_67_4     0.7760740429099333        c1_72_4     0.7737166417690973
    y4          c1_74_4     0.8105434069333084        c1_77_4     0.821877676745512
    y4          c1_85_4     0.41140174238344307       c1_102_4    0.8185692899981004
    y4          c1_109_4    0.0                       c1_123_4    0.0
    y4          c1_126_4    0.7975566561535024        c1_162_4    0.0
    y4          c1_163_4    0.7981083355165284        c1_170_4    0.0
    y4          c1_171_4    0.5893685136256429        c1_182_4    0.0
    y4          c1_194_4    0.6531816292247898        c1_199_4    0.8481717841610578
    y4          c1_207_4    0.22769888499852564       c1_214_4    0.5829091361727635
    y4          c1_219_4    0.0                       c1_224_4    0.3639219733601343
    y4          c1_226_4    0.0                       c1_267_4    0.0
    y4          c1_286_4    0.8264745288781461        c1_301_4    0.0
    y4          c1_336_4    0.6521024410384662        c1_344_4    0.659990159408325
    y4          c1_354_4    0.0                       c1_356_4    0.11121194748156327
    y4          c1_360_4    0.0                       c1_363_4    0.0
    y4          c1_367_4    0.0                       c1_383_4    0.0
    y4          c1_389_4    0.853388576845726         c1_397_4    0.49978180963150176
    y4          c1_403_4    0.7719120497810591        c1_414_4    0.10861661286392077
    y4          c1_415_4    0.6748478292092033        c1_420_4    0.8362596077164536
    y4          c1_422_4    0.44443371410511123       c1_428_4    0.8565830063308961
    y4          c1_430_4    0.29710697947303655       c1_437_4    0.6770749867012051
    y4          c1_439_4    0.717012281744337         c1_444_4    0.8341053896477317
    y4          c1_453_4    0.8251565949173799        c1_466_4    0.0
    y4          c1_467_4    0.5703887812115734        c1_472_4    0.0
    y4          c1_494_4    0.841449168323759         c1_497_4    0.8170051347640251
    y4          c2_15       -1.0                      c2_16       -0.26530724879839235
    y4          c2_37       -0.7737555114901388       c2_38       -0.2965590165426551
    y4          c2_40       -0.13677649735919253      c2_41       -0.14809765661322938
    y4          c2_50       -1.0                      c2_58       -0.1938265263353708
    y4          c2_67       -0.22392595709006666      c2_72       -0.2262833582309027
    y4          c2_74       -0.18945659306669158      c2_77       -0.178122323254488
    y4          c2_85       -0.5885982576165569       c2_102      -0.18143071000189956
    y4          c2_109      -1.0                      c2_123      -1.0
    y4          c2_126      -0.20244334384649768      c2_162      -1.0
    y4          c2_163      -0.20189166448347168      c2_170      -1.0
    y4          c2_171      -0.4106314863743571       c2_182      -1.0
    y4          c2_194      -0.3468183707752102       c2_199      -0.1518282158389422
    y4          c2_207      -0.7723011150014744       c2_214      -0.4170908638272365
    y4          c2_219      -1.0                      c2_224      -0.6360780266398657
    y4          c2_226      -1.0                      c2_267      -1.0
    y4          c2_286      -0.17352547112185396      c2_301      -1.0
    y4          c2_336      -0.34789755896153385      c2_344      -0.34000984059167505
    y4          c2_354      -1.0                      c2_356      -0.8887880525184367
    y4          c2_360      -1.0                      c2_363      -1.0
    y4          c2_367      -1.0                      c2_383      -1.0
    y4          c2_389      -0.14661142315427397      c2_397      -0.5002181903684982
    y4          c2_403      -0.2280879502189409       c2_414      -0.8913833871360792
    y4          c2_415      -0.32515217079079667      c2_420      -0.16374039228354645
    y4          c2_422      -0.5555662858948888       c2_428      -0.14341699366910385
    y4          c2_430      -0.7028930205269635       c2_437      -0.3229250132987948
    y4          c2_439      -0.28298771825566305      c2_444      -0.1658946103522683
    y4          c2_453      -0.17484340508262008      c2_466      -1.0
    y4          c2_467      -0.42961121878842656      c2_472      -1.0
    y4          c2_494      -0.15855083167624098      c2_497      -0.18299486523597489
    y4          budget      1.0                       link4       1.0
    y5          c1_2_5      0.5658610600743565        c1_5_5      0.7957367967966154
    y5          c1_15_5     0.5993391162550856        c1_16_5     0.6322148138370098
    y5          c1_33_5     0.655285560670164         c1_36_5     0.8240298909683283
    y5          c1_37_5     0.013161985827966127      c1_38_5     0.0
    y5          c1_39_5     0.551291018903837         c1_40_5     0.0
    y5          c1_41_5     0.6356933470132475        c1_45_5     0.6348698525953111
    y5          c1_47_5     0.7663362040789998        c1_48_5     0.8273403971866494
    y5          c1_49_5     0.42548410560165173       c1_50_5     0.5876686304107337
    y5          c1_52_5     0.46946118936288983       c1_58_5     0.0
    y5          c1_60_5     0.0                       c1_72_5     0.38693564131516656
    y5          c1_73_5     0.8575703243646238        c1_74_5     0.749149324938168
    y5          c1_77_5     0.0                       c1_83_5     0.02730129653868163
    y5          c1_94_5     0.8387289431150684        c1_102_5    0.24963341737070055
    y5          c1_106_5    0.7329261132414041        c1_108_5    0.8151939371450658
    y5          c1_123_5    0.6134745686502903        c1_139_5    0.6822319810124636
    y5          c1_143_5    0.6259705047700415        c1_147_5    0.8232130148733201
    y5          c1_161_5    0.8462409341128407        c1_162_5    0.0
    y5          c1_163_5    0.17786794564237585       c1_164_5    0.6117917416265206
    y5          c1_165_5    0.7325539964061415        c1_166_5    0.0
    y5          c1_170_5    0.0                       c1_171_5    0.39525537558791246
    y5          c1_174_5    0.676858830134845         c1_182_5    0.0
    y5          c1_192_5    0.30673179185679467       c1_194_5    0.8000511724525188
    y5          c1_199_5    0.12612192519383236       c1_219_5    0.714220946725193
    y5          c1_224_5    0.48045129070921255       c1_226_5    0.34073624684768966
    y5          c1_236_5    0.3313702654571056        c1_237_5    0.8218136010585086
    y5          c1_251_5    0.6347242130810922        c1_276_5    0.0
    y5          c1_282_5    0.5818558121430913        c1_288_5    0.7958990706492675
    y5          c1_293_5    0.436039770565816         c1_301_5    0.769322294521572
    y5          c1_303_5    0.39282565287537397       c1_313_5    0.7274977662667812
    y5          c1_314_5    0.025599578288955538      c1_317_5    0.0
    y5          c1_318_5    0.0                       c1_323_5    0.06773660999897546
    y5          c1_336_5    0.0                       c1_344_5    0.40119927618092965
    y5          c1_353_5    0.6879221708711567        c1_354_5    0.47234338804423204
    y5          c1_356_5    0.08604064302540693       c1_360_5    0.0
    y5          c1_363_5    0.829912967276821         c1_382_5    0.5108237303217338
    y5          c1_383_5    0.7990845987090436        c1_384_5    0.857599369231388
    y5          c1_389_5    0.0                       c1_396_5    0.0
    y5          c1_397_5    0.0                       c1_403_5    0.0
    y5          c1_405_5    0.7654131543484517        c1_407_5    0.7356002114319089
    y5          c1_414_5    0.0                       c1_419_5    0.789931807522633
    y5          c1_420_5    0.8194475030512293        c1_422_5    0.5351658545526494
    y5          c1_423_5    0.673948270188082         c1_427_5    0.45090962914012367
    y5          c1_428_5    0.0                       c1_430_5    0.5159975437594018
    y5          c1_437_5    0.0                       c1_439_5    0.7151745652381241
    y5          c1_440_5    0.02327128514309984       c1_453_5    0.6653032636918961
    y5          c1_466_5    0.2112690656407007        c1_471_5    0.0
    y5          c1_472_5    0.03325565978103939       c1_497_5    0.591224777457689
    y5          c2_2        -0.43413893992564345      c2_5        -0.2042632032033847
    y5          c2_15       -0.40066088374491443      c2_16       -0.3677851861629902
    y5          c2_33       -0.344714439329836        c2_36       -0.17597010903167165
    y5          c2_37       -0.9868380141720339       c2_38       -1.0
    y5          c2_39       -0.448708981096163        c2_40       -1.0
    y5          c2_41       -0.36430665298675247      c2_45       -0.3651301474046889
    y5          c2_47       -0.23366379592100014      c2_48       -0.17265960281335058
    y5          c2_49       -0.5745158943983483       c2_50       -0.41233136958926636
    y5          c2_52       -0.5305388106371102       c2_58       -1.0
    y5          c2_60       -1.0                      c2_72       -0.6130643586848334
    y5          c2_73       -0.14242967563537628      c2_74       -0.250850675061832
    y5          c2_77       -1.0                      c2_83       -0.9726987034613184
    y5          c2_94       -0.1612710568849316       c2_102      -0.7503665826292995
    y5          c2_106      -0.2670738867585959       c2_108      -0.18480606285493417
    y5          c2_123      -0.38652543134970974      c2_139      -0.31776801898753637
    y5          c2_143      -0.3740294952299586       c2_147      -0.17678698512667984
    y5          c2_161      -0.1537590658871592       c2_162      -1.0
    y5          c2_163      -0.8221320543576242       c2_164      -0.38820825837347933
    y5          c2_165      -0.2674460035938585       c2_166      -1.0
    y5          c2_170      -1.0                      c2_171      -0.6047446244120875
    y5          c2_174      -0.32314116986515495      c2_182      -1.0
    y5          c2_192      -0.6932682081432053       c2_194      -0.19994882754748117
    y5          c2_199      -0.8738780748061676       c2_219      -0.28577905327480707
    y5          c2_224      -0.5195487092907874       c2_226      -0.6592637531523103
    y5          c2_236      -0.6686297345428944       c2_237      -0.1781863989414913
    y5          c2_251      -0.3652757869189079       c2_276      -1.0
    y5          c2_282      -0.41814418785690866      c2_288      -0.2041009293507326
    y5          c2_293      -0.563960229434184        c2_301      -0.23067770547842803
    y5          c2_303      -0.607174347124626        c2_313      -0.27250223373321886
    y5          c2_314      -0.9744004217110445       c2_317      -1.0
    y5          c2_318      -1.0                      c2_323      -0.9322633900010245
    y5          c2_336      -1.0                      c2_344      -0.5988007238190703
    y5          c2_353      -0.31207782912884324      c2_354      -0.527656611955768
    y5          c2_356      -0.9139593569745931       c2_360      -1.0
    y5          c2_363      -0.17008703272317907      c2_382      -0.48917626967826616
    y5          c2_383      -0.20091540129095636      c2_384      -0.142400630768612
    y5          c2_389      -1.0                      c2_396      -1.0
    y5          c2_397      -1.0                      c2_403      -1.0
    y5          c2_405      -0.23458684565154833      c2_407      -0.2643997885680911
    y5          c2_414      -1.0                      c2_419      -0.210068192477367
    y5          c2_420      -0.18055249694877076      c2_422      -0.4648341454473506
    y5          c2_423      -0.326051729811918        c2_427      -0.5490903708598763
    y5          c2_428      -1.0                      c2_430      -0.4840024562405983
    y5          c2_437      -1.0                      c2_439      -0.284825434761876
    y5          c2_440      -0.9767287148569002       c2_453      -0.33469673630810387
    y5          c2_466      -0.7887309343592993       c2_471      -1.0
    y5          c2_472      -0.9667443402189606       c2_497      -0.408775222542311
    y5          budget      1.0                       link5       1.0
    y6          c1_24_6     0.0                       c1_31_6     0.43255891368519195
    y6          c1_35_6     0.15474696924275955       c1_51_6     0.04497831467977498
    y6          c1_54_6     0.36416382029543104       c1_61_6     0.3781357120451112
    y6          c1_68_6     0.7383116835160282        c1_84_6     0.0
    y6          c1_89_6     0.0                       c1_90_6     0.0
    y6          c1_105_6    0.697065341017767         c1_106_6    0.8612385492536825
    y6          c1_112_6    0.4525608488960636        c1_116_6    0.7746833436267253
    y6          c1_119_6    0.0                       c1_143_6    0.8440813018085812
    y6          c1_147_6    0.8448405005456877        c1_154_6    0.0
    y6          c1_157_6    0.8162388776816837        c1_159_6    0.4887104427830693
    y6          c1_168_6    0.7682323685613004        c1_172_6    0.8345619323431681
    y6          c1_180_6    0.3949170395374285        c1_200_6    0.7619793271880284
    y6          c1_203_6    0.8365477905324064        c1_209_6    0.40972839586245613
    y6          c1_211_6    0.8554966728448551        c1_215_6    0.0
    y6          c1_216_6    0.0                       c1_218_6    0.0702053307523518
    y6          c1_223_6    0.5574751683198709        c1_231_6    0.5050856730931585
    y6          c1_232_6    0.7808771050474258        c1_237_6    0.7348350736753257
    y6          c1_239_6    0.0                       c1_243_6    0.0
    y6          c1_248_6    0.7672039138132298        c1_249_6    0.0
    y6          c1_253_6    0.4261419847743557        c1_259_6    0.0
    y6          c1_262_6    0.0                       c1_263_6    0.0
    y6          c1_264_6    0.8618820916177428        c1_269_6    0.0
    y6          c1_275_6    0.4569043563271833        c1_279_6    0.616988323934384
    y6          c1_289_6    0.5461811818018414        c1_291_6    0.0
    y6          c1_297_6    0.6722515047400239        c1_299_6    0.5144230177663763
    y6          c1_309_6    0.0                       c1_310_6    0.3272194089321484
    y6          c1_329_6    0.0                       c1_339_6    0.8544920309313818
    y6          c1_340_6    0.5251532908414205        c1_342_6    0.5160569046251899
    y6          c1_343_6    0.05916261524023536       c1_347_6    0.8370436326923816
    y6          c1_369_6    0.7484045475351024        c1_402_6    0.0
    y6          c1_412_6    0.0                       c1_421_6    0.18211835306007162
    y6          c1_441_6    0.0                       c1_442_6    0.0
    y6          c1_447_6    0.09969842401627693       c1_449_6    0.8563983773125048
    y6          c1_454_6    0.5984727550751368        c1_463_6    0.7000503793006808
    y6          c1_478_6    0.0                       c1_481_6    0.7844007392607123
    y6          c1_489_6    0.4532361007402389        c1_491_6    0.0
    y6          c1_492_6    0.7432455498969033        c2_24       -1.0
    y6          c2_31       -0.567441086314808        c2_35       -0.8452530307572405
    y6          c2_51       -0.955021685320225        c2_54       -0.635836179704569
    y6          c2_61       -0.6218642879548888       c2_68       -0.2616883164839719
    y6          c2_84       -1.0                      c2_89       -1.0
    y6          c2_90       -1.0                      c2_105      -0.3029346589822331
    y6          c2_106      -0.13876145074631754      c2_112      -0.5474391511039364
    y6          c2_116      -0.2253166563732747       c2_119      -1.0
    y6          c2_143      -0.15591869819141882      c2_147      -0.15515949945431226
    y6          c2_154      -1.0                      c2_157      -0.1837611223183163
    y6          c2_159      -0.5112895572169307       c2_168      -0.2317676314386996
    y6          c2_172      -0.1654380676568319       c2_180      -0.6050829604625715
    y6          c2_200      -0.2380206728119716       c2_203      -0.16345220946759367
    y6          c2_209      -0.5902716041375439       c2_211      -0.1445033271551449
    y6          c2_215      -1.0                      c2_216      -1.0
    y6          c2_218      -0.9297946692476482       c2_223      -0.44252483168012907
    y6          c2_231      -0.49491432690684145      c2_232      -0.21912289495257423
    y6          c2_237      -0.2651649263246743       c2_239      -1.0
    y6          c2_243      -1.0                      c2_248      -0.2327960861867702
    y6          c2_249      -1.0                      c2_253      -0.5738580152256443
    y6          c2_259      -1.0                      c2_262      -1.0
    y6          c2_263      -1.0                      c2_264      -0.13811790838225727
    y6          c2_269      -1.0                      c2_275      -0.5430956436728167
    y6          c2_279      -0.38301167606561604      c2_289      -0.45381881819815856
    y6          c2_291      -1.0                      c2_297      -0.3277484952599761
    y6          c2_299      -0.48557698223362367      c2_309      -1.0
    y6          c2_310      -0.6727805910678516       c2_329      -1.0
    y6          c2_339      -0.1455079690686182       c2_340      -0.4748467091585795
    y6          c2_342      -0.48394309537481         c2_343      -0.9408373847597646
    y6          c2_347      -0.16295636730761842      c2_369      -0.25159545246489756
    y6          c2_402      -1.0                      c2_412      -1.0
    y6          c2_421      -0.8178816469399284       c2_441      -1.0
    y6          c2_442      -1.0                      c2_447      -0.9003015759837231
    y6          c2_449      -0.14360162268749518      c2_454      -0.4015272449248633
    y6          c2_463      -0.2999496206993192       c2_478      -1.0
    y6          c2_481      -0.21559926073928767      c2_489      -0.5467638992597611
    y6          c2_491      -1.0                      c2_492      -0.2567544501030967
    y6          budget      1.0                       link6       1.0
    y7          c1_3_7      0.1665656425349623        c1_7_7      0.2939037735219331
    y7          c1_10_7     0.0                       c1_18_7     0.703306409747282
    y7          c1_19_7     0.7557752609911987        c1_27_7     0.7937114105164013
    y7          c1_43_7     0.730003646855689         c1_46_7     0.7305837845811669
    y7          c1_66_7     0.17396584222021494       c1_78_7     0.7617144519529382
    y7          c1_82_7     0.0                       c1_95_7     0.7363477402596326
    y7          c1_110_7    0.42566051619355516       c1_131_7    0.855239696114902
    y7          c1_133_7    0.0                       c1_136_7    0.0
    y7          c1_140_7    0.6544149023620076        c1_141_7    0.706420385362857
    y7          c1_158_7    0.6868272678319238        c1_167_7    0.5340188006060673
    y7          c1_179_7    0.0                       c1_186_7    0.37660475564958906
    y7          c1_187_7    0.7428059230293558        c1_188_7    0.0
    y7          c1_206_7    0.49869592234510607       c1_212_7    0.5533018511550398
    y7          c1_220_7    0.6620887474397208        c1_235_7    0.8580741126633226
    y7          c1_245_7    0.8497994352055028        c1_247_7    0.11696879484039846
    y7          c1_273_7    0.0                       c1_280_7    0.8552934674479032
    y7          c1_283_7    0.8531629257065749        c1_287_7    0.844843393901315
    y7          c1_295_7    0.27747467832277617       c1_298_7    0.0
    y7          c1_306_7    0.5672148508492866        c1_311_7    0.5716217467859062
    y7          c1_328_7    0.06090692934876185       c1_331_7    0.0
    y7          c1_332_7    0.23177424149543446       c1_333_7    0.6042691894961483
    y7          c1_337_7    0.08674271485728757       c1_349_7    0.0
    y7          c1_351_7    0.0                       c1_366_7    0.3823477346320199
    y7          c1_372_7    0.0                       c1_373_7    0.7772918131121277
    y7          c1_387_7    0.0                       c1_413_7    0.548428555539316
    y7          c1_431_7    0.13671133627883114       c1_433_7    0.8317854047571837
    y7          c1_434_7    0.0                       c1_446_7    0.8555878162791741
    y7          c1_448_7    0.7854339474216795        c1_450_7    0.29294557949556277
    y7          c1_456_7    0.7404140676988602        c1_475_7    0.8068126643600992
    y7          c1_498_7    0.8403697352557494        c2_3        -0.8334343574650377
    y7          c2_7        -0.7060962264780669       c2_10       -1.0
    y7          c2_18       -0.296693590252718        c2_19       -0.24422473900880126
    y7          c2_27       -0.20628858948359874      c2_43       -0.269996353144311
    y7          c2_46       -0.26941621541883304      c2_66       -0.8260341577797851
    y7          c2_78       -0.23828554804706176      c2_82       -1.0
    y7          c2_95       -0.2636522597403675       c2_110      -0.5743394838064448
    y7          c2_131      -0.144760303885098        c2_133      -1.0
    y7          c2_136      -1.0                      c2_140      -0.34558509763799244
    y7          c2_141      -0.293579614637143        c2_158      -0.31317273216807623
    y7          c2_167      -0.46598119939393273      c2_179      -1.0
    y7          c2_186      -0.6233952443504109       c2_187      -0.25719407697064417
    y7          c2_188      -1.0                      c2_206      -0.5013040776548939
    y7          c2_212      -0.4466981488449601       c2_220      -0.33791125256027915
    y7          c2_235      -0.14192588733667746      c2_245      -0.15020056479449717
    y7          c2_247      -0.8830312051596015       c2_273      -1.0
    y7          c2_280      -0.14470653255209678      c2_283      -0.14683707429342507
    y7          c2_287      -0.15515660609868498      c2_295      -0.7225253216772238
    y7          c2_298      -1.0                      c2_306      -0.4327851491507134
    y7          c2_311      -0.4283782532140939       c2_328      -0.9390930706512381
    y7          c2_331      -1.0                      c2_332      -0.7682257585045655
    y7          c2_333      -0.39573081050385167      c2_337      -0.9132572851427124
    y7          c2_349      -1.0                      c2_351      -1.0
    y7          c2_366      -0.6176522653679801       c2_372      -1.0
    y7          c2_373      -0.22270818688787233      c2_387      -1.0
    y7          c2_413      -0.451571444460684        c2_431      -0.8632886637211689
    y7          c2_433      -0.16821459524281632      c2_434      -1.0
    y7          c2_446      -0.14441218372082582      c2_448      -0.21456605257832054
    y7          c2_450      -0.7070544205044372       c2_456      -0.25958593230113974
    y7          c2_475      -0.1931873356399007       c2_498      -0.1596302647442506
    y7          budget      1.0                       link7       1.0
    y8          c1_21_8     0.18377732589124907       c1_26_8     0.34128585552991064
    y8          c1_34_8     0.7848575839126226        c1_53_8     0.0
    y8          c1_55_8     0.010230497635022595      c1_56_8     0.8493792411858582
    y8          c1_57_8     0.0                       c1_70_8     0.8408002484317975
    y8          c1_76_8     0.6326195288391525        c1_87_8     0.0
    y8          c1_91_8     0.8403992050136418        c1_92_8     0.6559307656172914
    y8          c1_111_8    0.0                       c1_117_8    0.8027275323840625
    y8          c1_128_8    0.0                       c1_145_8    0.39521424614940703
    y8          c1_146_8    0.10168248573970118       c1_160_8    0.5146710396185628
    y8          c1_176_8    0.7951450588138166        c1_177_8    0.0
    y8          c1_181_8    0.06542202098198602       c1_189_8    0.7803271371798501
    y8          c1_222_8    0.8365097424396315        c1_241_8    0.0
    y8          c1_250_8    0.547844452363158         c1_268_8    0.22321685396505186
    y8          c1_270_8    0.7331178678764692        c1_274_8    0.0
    y8          c1_321_8    0.0                       c1_322_8    0.8081155014772301
    y8          c1_334_8    0.0                       c1_341_8    0.0
    y8          c1_350_8    0.10390892059083523       c1_357_8    0.8288517727484106
    y8          c1_380_8    0.5970260812956754        c1_392_8    0.696687451409203
    y8          c1_393_8    0.6144185988570354        c1_401_8    0.0
    y8          c1_406_8    0.08532618234125344       c1_424_8    0.0
    y8          c1_451_8    0.03790165443859894       c1_455_8    0.8062255387254054
    y8          c1_464_8    0.0                       c1_474_8    0.648928457101799
    y8          c1_479_8    0.8505000551953322        c1_482_8    0.0
    y8          c1_484_8    0.7900172106198139        c2_21       -0.8162226741087509
    y8          c2_26       -0.6587141444700894       c2_34       -0.21514241608737739
    y8          c2_53       -1.0                      c2_55       -0.9897695023649774
    y8          c2_56       -0.15062075881414186      c2_57       -1.0
    y8          c2_70       -0.15919975156820257      c2_76       -0.3673804711608475
    y8          c2_87       -1.0                      c2_91       -0.15960079498635815
    y8          c2_92       -0.34406923438270864      c2_111      -1.0
    y8          c2_117      -0.19727246761593756      c2_128      -1.0
    y8          c2_145      -0.604785753850593        c2_146      -0.8983175142602988
    y8          c2_160      -0.48532896038143725      c2_176      -0.20485494118618344
    y8          c2_177      -1.0                      c2_181      -0.934577979018014
    y8          c2_189      -0.21967286282014986      c2_222      -0.16349025756036853
    y8          c2_241      -1.0                      c2_250      -0.4521555476368419
    y8          c2_268      -0.7767831460349481       c2_270      -0.2668821321235309
    y8          c2_274      -1.0                      c2_321      -1.0
    y8          c2_322      -0.19188449852276987      c2_334      -1.0
    y8          c2_341      -1.0                      c2_350      -0.8960910794091648
    y8          c2_357      -0.17114822725158946      c2_380      -0.40297391870432464
    y8          c2_392      -0.30331254859079704      c2_393      -0.3855814011429646
    y8          c2_401      -1.0                      c2_406      -0.9146738176587466
    y8          c2_424      -1.0                      c2_451      -0.9620983455614011
    y8          c2_455      -0.19377446127459458      c2_464      -1.0
    y8          c2_474      -0.35107154289820103      c2_479      -0.14949994480466777
    y8          c2_482      -1.0                      c2_484      -0.20998278938018608
    y8          budget      1.0                       link8       1.0
    y9          c1_2_9      0.7596631375978826        c1_24_9     0.6867719493551745
    y9          c1_31_9     0.0                       c1_39_9     0.6612230656545883
    y9          c1_52_9     0.40968195680114705       c1_54_9     0.14552616868179635
    y9          c1_61_9     0.0                       c1_62_9     0.620208691168504
    y9          c1_84_9     0.807114972871558         c1_89_9     0.5962479106131496
    y9          c1_90_9     0.21177649558834055       c1_94_9     0.7236978882864367
    y9          c1_106_9    0.0                       c1_112_9    0.06113916380514406
    y9          c1_115_9    0.6290402342699748        c1_118_9    0.4876672256677572
    y9          c1_119_9    0.19471604734564285       c1_129_9    0.7057935539949715
    y9          c1_130_9    0.332670708551272         c1_139_9    0.37821831183548416
    y9          c1_143_9    0.6238889664485936        c1_147_9    0.0
    y9          c1_154_9    0.7259955269893724        c1_164_9    0.7260050457064438
    y9          c1_166_9    0.7821366365877844        c1_168_9    0.0
    y9          c1_172_9    0.0                       c1_190_9    0.7656971892987273
    y9          c1_203_9    0.0                       c1_204_9    0.597396159666935
    y9          c1_209_9    0.0                       c1_216_9    0.150214614081716
    y9          c1_217_9    0.6386781668791814        c1_218_9    0.0
    y9          c1_236_9    0.5931161971256151        c1_237_9    0.7392067323580194
    y9          c1_239_9    0.0                       c1_243_9    0.8339748105461307
    y9          c1_248_9    0.8640208422585297        c1_249_9    0.0
    y9          c1_253_9    0.0                       c1_259_9    0.28594952697449416
    y9          c1_261_9    0.6452944511221539        c1_263_9    0.8061157597966566
    y9          c1_264_9    0.0                       c1_275_9    0.0
    y9          c1_291_9    0.2405230405495039        c1_292_9    0.6268646442171018
    y9          c1_293_9    0.44262246497187263       c1_297_9    0.0
    y9          c1_299_9    0.7506815568901961        c1_300_9    0.0
    y9          c1_303_9    0.7748615903079523        c1_314_9    0.7970040846315343
    y9          c1_317_9    0.7317871557620543        c1_323_9    0.8178854480795821
    y9          c1_329_9    0.8536043016137447        c1_340_9    0.0
    y9          c1_343_9    0.17667159315386716       c1_353_9    0.5231323525459919
    y9          c1_362_9    0.0                       c1_364_9    0.6513595696790611
    y9          c1_369_9    0.0                       c1_371_9    0.0
    y9          c1_377_9    0.6706946703523162        c1_382_9    0.3684693679208958
    y9          c1_384_9    0.285691477961999         c1_396_9    0.7917079515170109
    y9          c1_405_9    0.4481676306253881        c1_407_9    0.69803296398399
    y9          c1_410_9    0.4024038138192436        c1_412_9    0.6368731149212995
    y9          c1_419_9    0.600573607284624         c1_421_9    0.7277440827939439
    y9          c1_423_9    0.014630472232943004      c1_428_9    0.8458312097549008
    y9          c1_432_9    0.0                       c1_442_9    0.7569730057275167
    y9          c1_454_9    0.0                       c1_459_9    0.0
    y9          c1_470_9    0.3039407321193528        c1_473_9    0.0
    y9          c1_489_9    0.7379093494757154        c1_491_9    0.32202980618870924
    y9          c1_492_9    0.0                       c1_496_9    0.5786502913960299
    y9          c2_2        -0.24033686240211732      c2_24       -0.31322805064482545
    y9          c2_31       -1.0                      c2_39       -0.33877693434541173
    y9          c2_52       -0.590318043198853        c2_54       -0.8544738313182036
    y9          c2_61       -1.0                      c2_62       -0.37979130883149603
    y9          c2_84       -0.19288502712844205      c2_89       -0.40375208938685037
    y9          c2_90       -0.7882235044116594       c2_94       -0.2763021117135634
    y9          c2_106      -1.0                      c2_112      -0.9388608361948559
    y9          c2_115      -0.3709597657300252       c2_118      -0.5123327743322428
    y9          c2_119      -0.8052839526543571       c2_129      -0.29420644600502854
    y9          c2_130      -0.667329291448728        c2_139      -0.6217816881645158
    y9          c2_143      -0.3761110335514064       c2_147      -1.0
    y9          c2_154      -0.2740044730106276       c2_164      -0.2739949542935563
    y9          c2_166      -0.21786336341221563      c2_168      -1.0
    y9          c2_172      -1.0                      c2_190      -0.2343028107012727
    y9          c2_203      -1.0                      c2_204      -0.4026038403330649
    y9          c2_209      -1.0                      c2_216      -0.849785385918284
    y9          c2_217      -0.3613218331208185       c2_218      -1.0
    y9          c2_236      -0.4068838028743848       c2_237      -0.2607932676419807
    y9          c2_239      -1.0                      c2_243      -0.16602518945386938
    y9          c2_248      -0.13597915774147032      c2_249      -1.0
    y9          c2_253      -1.0                      c2_259      -0.7140504730255058
    y9          c2_261      -0.35470554887784606      c2_263      -0.19388424020334344
    y9          c2_264      -1.0                      c2_275      -1.0
    y9          c2_291      -0.7594769594504961       c2_292      -0.3731353557828983
    y9          c2_293      -0.5573775350281274       c2_297      -1.0
    y9          c2_299      -0.24931844310980383      c2_300      -1.0
    y9          c2_303      -0.22513840969204765      c2_314      -0.20299591536846576
    y9          c2_317      -0.2682128442379456       c2_323      -0.1821145519204179
    y9          c2_329      -0.14639569838625532      c2_340      -1.0
    y9          c2_343      -0.8233284068461328       c2_353      -0.4768676474540081
    y9          c2_362      -1.0                      c2_364      -0.348640430320939
    y9          c2_369      -1.0                      c2_371      -1.0
    y9          c2_377      -0.32930532964768383      c2_382      -0.6315306320791042
    y9          c2_384      -0.714308522038001        c2_396      -0.20829204848298905
    y9          c2_405      -0.5518323693746119       c2_407      -0.3019670360160101
    y9          c2_410      -0.5975961861807564       c2_412      -0.3631268850787005
    y9          c2_419      -0.39942639271537606      c2_421      -0.27225591720605613
    y9          c2_423      -0.985369527767057        c2_428      -0.15416879024509916
    y9          c2_432      -1.0                      c2_442      -0.24302699427248328
    y9          c2_454      -1.0                      c2_459      -1.0
    y9          c2_470      -0.6960592678806472       c2_473      -1.0
    y9          c2_489      -0.2620906505242846       c2_491      -0.6779701938112908
    y9          c2_492      -1.0                      c2_496      -0.42134970860397014
    y9          budget      1.0                       link9       1.0
    y10         c1_16_10    0.599414800396099         c1_38_10    0.7941646532643729
    y10         c1_39_10    0.14872650017926625       c1_41_10    0.29667932568671085
    y10         c1_52_10    0.6151516201203331        c1_61_10    0.861702989443639
    y10         c1_62_10    0.0                       c1_72_10    0.5754076596590896
    y10         c1_94_10    0.0                       c1_106_10   0.7241313192879683
    y10         c1_115_10   0.0                       c1_118_10   0.0
    y10         c1_129_10   0.3473064228171353        c1_130_10   0.0
    y10         c1_139_10   0.07246862153234923       c1_147_10   0.6381553485875895
    y10         c1_164_10   0.0                       c1_168_10   0.8055521652339789
    y10         c1_171_10   0.7471696889328688        c1_172_10   0.5865725306098624
    y10         c1_190_10   0.5804375573577771        c1_203_10   0.8209223073253046
    y10         c1_204_10   0.0                       c1_209_10   0.8533101526394985
    y10         c1_217_10   0.0                       c1_224_10   0.8326363378618592
    y10         c1_236_10   0.8641209082622293        c1_261_10   0.0
    y10         c1_264_10   0.7479775206193078        c1_275_10   0.8468228796514925
    y10         c1_292_10   0.0                       c1_293_10   0.7876972866584454
    y10         c1_297_10   0.850909663208207         c1_300_10   0.5657902796758294
    y10         c1_317_10   0.7001818503159773        c1_340_10   0.85298325687232
    y10         c1_353_10   0.0                       c1_362_10   0.4703143099916227
    y10         c1_364_10   0.0                       c1_369_10   0.661011579571487
    y10         c1_371_10   0.05449709549892334       c1_377_10   0.0014588675353019998
    y10         c1_382_10   0.5836720021061883        c1_384_10   0.0
    y10         c1_405_10   0.0                       c1_407_10   0.0
    y10         c1_410_10   0.0                       c1_419_10   0.0
    y10         c1_423_10   0.7156289332279626        c1_428_10   0.6570364958175586
    y10         c1_432_10   0.3031446043172842        c1_437_10   0.8495051730448454
    y10         c1_454_10   0.8297336609905943        c1_459_10   0.26884258371419956
    y10         c1_470_10   0.0                       c1_473_10   0.0
    y10         c1_492_10   0.6652520598301062        c1_496_10   0.41759983673489054
    y10         c2_16       -0.40058519960390104      c2_38       -0.20583534673562712
    y10         c2_39       -0.8512734998207337       c2_41       -0.7033206743132892
    y10         c2_52       -0.3848483798796669       c2_61       -0.138297010556361
    y10         c2_62       -1.0                      c2_72       -0.42459234034091037
    y10         c2_94       -1.0                      c2_106      -0.27586868071203174
    y10         c2_115      -1.0                      c2_118      -1.0
    y10         c2_129      -0.6526935771828647       c2_130      -1.0
    y10         c2_139      -0.9275313784676508       c2_147      -0.3618446514124105
    y10         c2_164      -1.0                      c2_168      -0.19444783476602115
    y10         c2_171      -0.25283031106713116      c2_172      -0.4134274693901377
    y10         c2_190      -0.4195624426422229       c2_203      -0.1790776926746954
    y10         c2_204      -1.0                      c2_209      -0.14668984736050153
    y10         c2_217      -1.0                      c2_224      -0.16736366213814083
    y10         c2_236      -0.13587909173777066      c2_261      -1.0
    y10         c2_264      -0.2520224793806923       c2_275      -0.1531771203485075
    y10         c2_292      -1.0                      c2_293      -0.2123027133415546
    y10         c2_297      -0.14909033679179298      c2_300      -0.43420972032417066
    y10         c2_317      -0.29981814968402265      c2_340      -0.14701674312768
    y10         c2_353      -1.0                      c2_362      -0.5296856900083773
    y10         c2_364      -1.0                      c2_369      -0.338988420428513
    y10         c2_371      -0.9455029045010767       c2_377      -0.998541132464698
    y10         c2_382      -0.4163279978938117       c2_384      -1.0
    y10         c2_405      -1.0                      c2_407      -1.0
    y10         c2_410      -1.0                      c2_419      -1.0
    y10         c2_423      -0.28437106677203744      c2_428      -0.34296350418244137
    y10         c2_432      -0.6968553956827158       c2_437      -0.15049482695515462
    y10         c2_454      -0.17026633900940571      c2_459      -0.7311574162858004
    y10         c2_470      -1.0                      c2_473      -1.0
    y10         c2_492      -0.33474794016989384      c2_496      -0.5824001632651095
    y10         budget      1.0                       link10      1.0
    y11         c1_2_11     0.7752453568829523        c1_24_11    0.557636048512475
    y11         c1_25_11    0.5199774557653861        c1_33_11    0.8149733212066569
    y11         c1_35_11    0.0                       c1_42_11    0.48947370775574184
    y11         c1_47_11    0.7212324821745175        c1_48_11    0.4242372869318245
    y11         c1_51_11    0.0                       c1_68_11    0.5580408093207867
    y11         c1_73_11    0.6563114297481383        c1_80_11    0.4378584498881064
    y11         c1_84_11    0.07189764931103348       c1_89_11    0.04679613365876101
    y11         c1_90_11    0.5799792251734905        c1_91_11    0.5645083243973448
    y11         c1_105_11   0.5837983436604648        c1_108_11   0.7107131142796543
    y11         c1_112_11   0.6761020974881022        c1_113_11   0.8603198013257491
    y11         c1_116_11   0.7235649372911954        c1_119_11   0.5928511423409313
    y11         c1_120_11   0.5167975798044735        c1_124_11   0.1675194043763133
    y11         c1_138_11   0.7542079326916602        c1_143_11   0.7903787420745423
    y11         c1_154_11   0.698449144317951         c1_157_11   0.0
    y11         c1_159_11   0.5651859216063431        c1_169_11   0.5698480158556058
    y11         c1_176_11   0.7020474833483078        c1_180_11   0.33457618039548986
    y11         c1_195_11   0.8254761123305742        c1_196_11   0.809962396926176
    y11         c1_200_11   0.0                       c1_211_11   0.0
    y11         c1_215_11   0.3977467399325081        c1_216_11   0.5920413527409474
    y11         c1_223_11   0.08446591529454406       c1_225_11   0.8615203301158336
    y11         c1_231_11   0.0                       c1_232_11   0.5875135387365698
    y11         c1_237_11   0.46851769821611944       c1_239_11   0.7867730371181003
    y11         c1_243_11   0.3043400237810038        c1_248_11   0.14387332625279103
    y11         c1_251_11   0.7882149015757174        c1_253_11   0.7898520992993592
    y11         c1_256_11   0.8533224021458723        c1_259_11   0.595538058641751
    y11         c1_262_11   0.19378544615073356       c1_263_11   0.3650488311659571
    y11         c1_269_11   0.0                       c1_279_11   0.7093262407387237
    y11         c1_288_11   0.4845000323795784        c1_289_11   0.7582190983022552
    y11         c1_290_11   0.0                       c1_291_11   0.49652680937437654
    y11         c1_296_11   0.8508266974815637        c1_299_11   0.0
    y11         c1_303_11   0.8398471292378302        c1_305_11   0.6468451842012181
    y11         c1_309_11   0.6292517646652117        c1_310_11   0.0
    y11         c1_329_11   0.0                       c1_338_11   0.8360981396294866
    y11         c1_339_11   0.0                       c1_342_11   0.0
    y11         c1_347_11   0.0                       c1_357_11   0.7152830936075163
    y11         c1_385_11   0.5719952031837625        c1_386_11   0.6137246623682369
    y11         c1_393_11   0.8460826768755205        c1_399_11   0.5097734002385995
    y11         c1_402_11   0.0                       c1_412_11   0.7632337202800968
    y11         c1_421_11   0.0                       c1_426_11   0.6976901803853257
    y11         c1_441_11   0.0                       c1_442_11   0.0
    y11         c1_447_11   0.0                       c1_449_11   0.030298928281959348
    y11         c1_458_11   0.848217994644576         c1_463_11   0.0
    y11         c1_469_11   0.8161855925161996        c1_474_11   0.8204462700244097
    y11         c1_478_11   0.39361539823272695       c1_479_11   0.8381892348847966
    y11         c1_481_11   0.0                       c1_489_11   0.0
    y11         c1_491_11   0.8123337265609538        c2_2        -0.22475464311704768
    y11         c2_24       -0.44236395148752505      c2_25       -0.4800225442346139
    y11         c2_33       -0.18502667879334309      c2_35       -1.0
    y11         c2_42       -0.5105262922442582       c2_47       -0.2787675178254824
    y11         c2_48       -0.5757627130681755       c2_51       -1.0
    y11         c2_68       -0.4419591906792133       c2_73       -0.3436885702518617
    y11         c2_80       -0.5621415501118936       c2_84       -0.9281023506889665
    y11         c2_89       -0.953203866341239        c2_90       -0.4200207748265094
    y11         c2_91       -0.4354916756026552       c2_105      -0.41620165633953515
    y11         c2_108      -0.2892868857203456       c2_112      -0.32389790251189776
    y11         c2_113      -0.13968019867425086      c2_116      -0.27643506270880464
    y11         c2_119      -0.40714885765906866      c2_120      -0.48320242019552645
    y11         c2_124      -0.8324805956236867       c2_138      -0.24579206730833977
    y11         c2_143      -0.2096212579254577       c2_154      -0.3015508556820489
    y11         c2_157      -1.0                      c2_159      -0.4348140783936569
    y11         c2_169      -0.4301519841443941       c2_176      -0.2979525166516922
    y11         c2_180      -0.6654238196045101       c2_195      -0.17452388766942586
    y11         c2_196      -0.19003760307382403      c2_200      -1.0
    y11         c2_211      -1.0                      c2_215      -0.6022532600674919
    y11         c2_216      -0.4079586472590527       c2_223      -0.9155340847054559
    y11         c2_225      -0.13847966988416632      c2_231      -1.0
    y11         c2_232      -0.4124864612634303       c2_237      -0.5314823017838806
    y11         c2_239      -0.21322696288189974      c2_243      -0.6956599762189962
    y11         c2_248      -0.856126673747209        c2_251      -0.21178509842428256
    y11         c2_253      -0.21014790070064077      c2_256      -0.14667759785412773
    y11         c2_259      -0.404461941358249        c2_262      -0.8062145538492664
    y11         c2_263      -0.6349511688340429       c2_269      -1.0
    y11         c2_279      -0.29067375926127625      c2_288      -0.5154999676204216
    y11         c2_289      -0.24178090169774483      c2_290      -1.0
    y11         c2_291      -0.5034731906256235       c2_296      -0.14917330251843625
    y11         c2_299      -1.0                      c2_303      -0.16015287076216972
    y11         c2_305      -0.35315481579878194      c2_309      -0.3707482353347883
    y11         c2_310      -1.0                      c2_329      -1.0
    y11         c2_338      -0.1639018603705133       c2_339      -1.0
    y11         c2_342      -1.0                      c2_347      -1.0
    y11         c2_357      -0.2847169063924837       c2_385      -0.42800479681623743
    y11         c2_386      -0.3862753376317632       c2_393      -0.15391732312447953
    y11         c2_399      -0.4902265997614005       c2_402      -1.0
    y11         c2_412      -0.23676627971990313      c2_421      -1.0
    y11         c2_426      -0.30230981961467435      c2_441      -1.0
    y11         c2_442      -1.0                      c2_447      -1.0
    y11         c2_449      -0.9697010717180407       c2_458      -0.15178200535542397
    y11         c2_463      -1.0                      c2_469      -0.18381440748380043
    y11         c2_474      -0.17955372997559024      c2_478      -0.606384601767273
    y11         c2_479      -0.16181076511520337      c2_481      -1.0
    y11         c2_489      -1.0                      c2_491      -0.18766627343904616
    y11         budget      1.0                       link11      1.0
    y12         c1_21_12    0.0                       c1_25_12    0.6439135198135946
    y12         c1_26_12    0.0                       c1_32_12    0.16338013781969618
    y12         c1_55_12    0.7665685100567501        c1_56_12    0.0
    y12         c1_57_12    0.6745076591275161        c1_70_12    0.0
    y12         c1_79_12    0.7024867288608401        c1_80_12    0.6407308130845735
    y12         c1_87_12    0.26104212975124985       c1_91_12    0.7339783129220112
    y12         c1_97_12    0.7757023544096109        c1_99_12    0.40530140117644764
    y12         c1_104_12   0.26844417661455566       c1_113_12   0.44003255749851056
    y12         c1_114_12   0.3646863953644651        c1_128_12   0.7402696809816629
    y12         c1_142_12   0.7770263189628422        c1_145_12   0.3433883470988832
    y12         c1_146_12   0.0                       c1_175_12   0.7391624789107409
    y12         c1_176_12   0.8310649355802053        c1_185_12   0.7816110265756976
    y12         c1_189_12   0.0                       c1_195_12   0.0
    y12         c1_196_12   0.0                       c1_221_12   0.7472753065853085
    y12         c1_222_12   0.0                       c1_225_12   0.36541392006265627
    y12         c1_229_12   0.5517951309069413        c1_234_12   0.7868498458996427
    y12         c1_241_12   0.0                       c1_244_12   0.7847877918897993
    y12         c1_250_12   0.0                       c1_258_12   0.8372899180134544
    y12         c1_266_12   0.84371481190435          c1_268_12   0.8261487125691775
    y12         c1_270_12   0.0                       c1_290_12   0.8193740565236601
    y12         c1_319_12   0.782427227469638         c1_321_12   0.0
    y12         c1_322_12   0.0                       c1_334_12   0.7381824860669831
    y12         c1_335_12   0.0                       c1_348_12   0.6128743230583349
    y12         c1_355_12   0.6500942522767703        c1_370_12   0.701935054129958
    y12         c1_379_12   0.6578586384656457        c1_380_12   0.0
    y12         c1_385_12   0.797636518476989         c1_388_12   0.8143337510942331
    y12         c1_393_12   0.7951669476623717        c1_399_12   0.5731725212382629
    y12         c1_401_12   0.4864668847720135        c1_406_12   0.0
    y12         c1_408_12   0.3970967150672875        c1_424_12   0.7554239716865415
    y12         c1_451_12   0.0                       c1_460_12   0.0
    y12         c1_461_12   0.5113804530095256        c1_464_12   0.8105355329820088
    y12         c1_469_12   0.5865325149085443        c1_474_12   0.3533519928243397
    y12         c1_476_12   0.4522825146273889        c1_479_12   0.0
    y12         c1_482_12   0.8284429939797725        c1_486_12   0.824763680598998
    y12         c1_487_12   0.8214281346321037        c1_490_12   0.0
    y12         c1_499_12   0.0                       c2_21       -1.0
    y12         c2_25       -0.3560864801864054       c2_26       -1.0
    y12         c2_32       -0.8366198621803038       c2_55       -0.23343148994324997
    y12         c2_56       -1.0                      c2_57       -0.32549234087248397
    y12         c2_70       -1.0                      c2_79       -0.2975132711391599
    y12         c2_80       -0.3592691869154265       c2_87       -0.7389578702487501
    y12         c2_91       -0.26602168707798873      c2_97       -0.22429764559038912
    y12         c2_99       -0.5946985988235524       c2_104      -0.7315558233854443
    y12         c2_113      -0.5599674425014894       c2_114      -0.6353136046355349
    y12         c2_128      -0.25973031901833704      c2_142      -0.22297368103715776
    y12         c2_145      -0.6566116529011168       c2_146      -1.0
    y12         c2_175      -0.26083752108925906      c2_176      -0.1689350644197947
    y12         c2_185      -0.21838897342430244      c2_189      -1.0
    y12         c2_195      -1.0                      c2_196      -1.0
    y12         c2_221      -0.2527246934146915       c2_222      -1.0
    y12         c2_225      -0.6345860799373437       c2_229      -0.4482048690930587
    y12         c2_234      -0.21315015410035737      c2_241      -1.0
    y12         c2_244      -0.21521220811020067      c2_250      -1.0
    y12         c2_258      -0.16271008198654557      c2_266      -0.1562851880956499
    y12         c2_268      -0.17385128743082243      c2_270      -1.0
    y12         c2_290      -0.1806259434763399       c2_319      -0.21757277253036206
    y12         c2_321      -1.0                      c2_322      -1.0
    y12         c2_334      -0.2618175139330169       c2_335      -1.0
    y12         c2_348      -0.38712567694166516      c2_355      -0.34990574772322974
    y12         c2_370      -0.298064945870042        c2_379      -0.3421413615343543
    y12         c2_380      -1.0                      c2_385      -0.20236348152301098
    y12         c2_388      -0.18566624890576688      c2_393      -0.20483305233762833
    y12         c2_399      -0.4268274787617371       c2_401      -0.5135331152279865
    y12         c2_406      -1.0                      c2_408      -0.6029032849327125
    y12         c2_424      -0.24457602831345848      c2_451      -1.0
    y12         c2_460      -1.0                      c2_461      -0.4886195469904744
    y12         c2_464      -0.18946446701799124      c2_469      -0.41346748509145576
    y12         c2_474      -0.6466480071756603       c2_476      -0.5477174853726111
    y12         c2_479      -1.0                      c2_482      -0.17155700602022753
    y12         c2_486      -0.17523631940100207      c2_487      -0.1785718653678962
    y12         c2_490      -1.0                      c2_499      -1.0
    y12         budget      1.0                       link12      1.0
    y13         c1_21_13    0.8598626868615922        c1_26_13    0.7605734715676429
    y13         c1_34_13    0.0                       c1_53_13    0.0
    y13         c1_55_13    0.0                       c1_57_13    0.0
    y13         c1_68_13    0.6466070801607906        c1_76_13    0.0
    y13         c1_87_13    0.7397309914829018        c1_91_13    0.6098373360325897
    y13         c1_92_13    0.0                       c1_105_13   0.6941088652170291
    y13         c1_111_13   0.0                       c1_116_13   0.6066525329241326
    y13         c1_117_13   0.0                       c1_120_13   0.4856854490143343
    y13         c1_128_13   0.0                       c1_145_13   0.336021373297246
    y13         c1_146_13   0.8555989856116583        c1_159_13   0.8251763196343213
    y13         c1_160_13   0.0                       c1_176_13   0.21910806185460563
    y13         c1_177_13   0.0                       c1_180_13   0.8467161204733488
    y13         c1_181_13   0.0                       c1_200_13   0.8161274827873701
    y13         c1_205_13   0.3332000713602582        c1_223_13   0.8112073509964682
    y13         c1_232_13   0.580569097853235         c1_241_13   0.8508930650371034
    y13         c1_268_13   0.0                       c1_274_13   0.0
    y13         c1_277_13   0.420270496717987         c1_279_13   0.7902762435956581
    y13         c1_289_13   0.8497786202285419        c1_321_13   0.7868750940704162
    y13         c1_334_13   0.0                       c1_339_13   0.8567417305477961
    y13         c1_341_13   0.0                       c1_342_13   0.845605343364564
    y13         c1_350_13   0.0                       c1_357_13   0.10787572600602424
    y13         c1_386_13   0.3428667075802655        c1_392_13   0.0
    y13         c1_393_13   0.0                       c1_401_13   0.0
    y13         c1_424_13   0.0                       c1_449_13   0.7587501729843406
    y13         c1_451_13   0.8270150949662577        c1_455_13   0.0
    y13         c1_464_13   0.0                       c1_474_13   0.5543676096752469
    y13         c1_482_13   0.0                       c1_484_13   0.0
    y13         c2_21       -0.1401373131384078       c2_26       -0.23942652843235707
    y13         c2_34       -1.0                      c2_53       -1.0
    y13         c2_55       -1.0                      c2_57       -1.0
    y13         c2_68       -0.35339291983920934      c2_76       -1.0
    y13         c2_87       -0.26026900851709817      c2_91       -0.39016266396741034
    y13         c2_92       -1.0                      c2_105      -0.3058911347829709
    y13         c2_111      -1.0                      c2_116      -0.39334746707586743
    y13         c2_117      -1.0                      c2_120      -0.5143145509856657
    y13         c2_128      -1.0                      c2_145      -0.663978626702754
    y13         c2_146      -0.14440101438834171      c2_159      -0.17482368036567875
    y13         c2_160      -1.0                      c2_176      -0.7808919381453944
    y13         c2_177      -1.0                      c2_180      -0.15328387952665123
    y13         c2_181      -1.0                      c2_200      -0.18387251721262993
    y13         c2_205      -0.6667999286397418       c2_223      -0.18879264900353177
    y13         c2_232      -0.419430902146765        c2_241      -0.14910693496289668
    y13         c2_268      -1.0                      c2_274      -1.0
    y13         c2_277      -0.579729503282013        c2_279      -0.209723756404342
    y13         c2_289      -0.15022137977145808      c2_321      -0.2131249059295838
    y13         c2_334      -1.0                      c2_339      -0.14325826945220385
    y13         c2_341      -1.0                      c2_342      -0.15439465663543597
    y13         c2_350      -1.0                      c2_357      -0.8921242739939758
    y13         c2_386      -0.6571332924197345       c2_392      -1.0
    y13         c2_393      -1.0                      c2_401      -1.0
    y13         c2_424      -1.0                      c2_449      -0.24124982701565945
    y13         c2_451      -0.17298490503374228      c2_455      -1.0
    y13         c2_464      -1.0                      c2_474      -0.4456323903247531
    y13         c2_482      -1.0                      c2_484      -1.0
    y13         budget      1.0                       link13      1.0
    y14         c1_0_14     0.36752621027330934       c1_4_14     0.6955438155653733
    y14         c1_5_14     0.0                       c1_8_14     0.6737857787286643
    y14         c1_9_14     0.49641281568386153       c1_20_14    0.6528446798167806
    y14         c1_22_14    0.28648508357061775       c1_30_14    0.6960333310834413
    y14         c1_33_14    0.4444177914545572        c1_36_14    0.6965001166022631
    y14         c1_40_14    0.7319203807020991        c1_42_14    0.7076577221375735
    y14         c1_44_14    0.5472353863244335        c1_45_14    0.0
    y14         c1_47_14    0.5228537318403668        c1_48_14    0.8105527104199677
    y14         c1_49_14    0.0                       c1_60_14    0.5021754021566467
    y14         c1_71_14    0.5409599049330294        c1_73_14    0.4710386165585474
    y14         c1_74_14    0.7731311798679699        c1_75_14    0.795778532821302
    y14         c1_77_14    0.7672527108254561        c1_83_14    0.3524920539641342
    y14         c1_86_14    0.668795631389735         c1_88_14    0.654727851601079
    y14         c1_93_14    0.848250119224099         c1_98_14    0.28360308059501504
    y14         c1_102_14   0.6087657655958334        c1_103_14   0.783840053113596
    y14         c1_108_14   0.44431791835603585       c1_124_14   0.7514359800253253
    y14         c1_127_14   0.5766426793293034        c1_132_14   0.7081778325603238
    y14         c1_137_14   0.7521161494317248        c1_138_14   0.4648241166914243
    y14         c1_142_14   0.8570585953834219        c1_144_14   0.8006534714313476
    y14         c1_148_14   0.8624529746483629        c1_149_14   0.2918380950162158
    y14         c1_150_14   0.860954549850881         c1_153_14   0.0
    y14         c1_156_14   0.0                       c1_161_14   0.0
    y14         c1_163_14   0.6478999859612561        c1_165_14   0.6203179974132619
    y14         c1_169_14   0.5561138001179626        c1_174_14   0.0
    y14         c1_178_14   0.47490782834178824       c1_192_14   0.0849312992565584
    y14         c1_197_14   0.0                       c1_198_14   0.0
    y14         c1_199_14   0.5374022118597945        c1_210_14   0.8312100860189473
    y14         c1_213_14   0.0                       c1_227_14   0.17513865806418594
    y14         c1_228_14   0.0                       c1_230_14   0.7085494938914307
    y14         c1_240_14   0.006315230666986249      c1_246_14   0.4117607739325244
    y14         c1_251_14   0.5788026185432258        c1_254_14   0.0
    y14         c1_256_14   0.0                       c1_272_14   0.8034821766969924
    y14         c1_276_14   0.5671430656102945        c1_278_14   0.41600705150980655
    y14         c1_282_14   0.0                       c1_284_14   0.0
    y14         c1_285_14   0.0                       c1_288_14   0.8366211671199636
    y14         c1_296_14   0.0923874203024242        c1_305_14   0.4068321138948834
    y14         c1_312_14   0.0                       c1_313_14   0.3789029074964746
    y14         c1_315_14   0.0                       c1_318_14   0.79275022145151
    y14         c1_320_14   0.21457293588237458       c1_326_14   0.0
    y14         c1_327_14   0.0                       c1_330_14   0.8059659230498476
    y14         c1_336_14   0.838896384175958         c1_338_14   0.1504894091579948
    y14         c1_344_14   0.8060175603277004        c1_345_14   0.0
    y14         c1_346_14   0.7262607410569981        c1_355_14   0.8487769581103046
    y14         c1_361_14   0.0                       c1_365_14   0.7622639413150117
    y14         c1_368_14   0.0                       c1_375_14   0.4597610298746231
    y14         c1_378_14   0.7106948147315766        c1_381_14   0.0
    y14         c1_385_14   0.8598977051825402        c1_389_14   0.8262247580606235
    y14         c1_400_14   0.8570813010195617        c1_403_14   0.6904006369747938
    y14         c1_404_14   0.4992567437077139        c1_411_14   0.8275547841113865
    y14         c1_416_14   0.0                       c1_417_14   0.672827565596658
    y14         c1_418_14   0.0                       c1_420_14   0.7998236094101772
    y14         c1_425_14   0.0                       c1_426_14   0.42214664747366615
    y14         c1_427_14   0.0                       c1_429_14   0.0
    y14         c1_438_14   0.42368149083922746       c1_439_14   0.8409471012668942
    y14         c1_440_14   0.42285181835988894       c1_452_14   0.366237650896026
    y14         c1_453_14   0.6923823140300929        c1_458_14   0.0
    y14         c1_462_14   0.7369275411793956        c1_468_14   0.0
    y14         c1_471_14   0.8221271043997287        c1_486_14   0.7920975663694606
    y14         c1_488_14   0.4568514808382652        c1_493_14   0.7705007515937479
    y14         c1_497_14   0.6730184471282898        c2_0        -0.6324737897266907
    y14         c2_4        -0.3044561844346268       c2_5        -1.0
    y14         c2_8        -0.3262142212713357       c2_9        -0.5035871843161385
    y14         c2_20       -0.3471553201832194       c2_22       -0.7135149164293823
    y14         c2_30       -0.30396666891655866      c2_33       -0.5555822085454428
    y14         c2_36       -0.303499883397737        c2_40       -0.2680796192979009
    y14         c2_42       -0.29234227786242645      c2_44       -0.4527646136755665
    y14         c2_45       -1.0                      c2_47       -0.4771462681596332
    y14         c2_48       -0.1894472895800323       c2_49       -1.0
    y14         c2_60       -0.49782459784335326      c2_71       -0.4590400950669707
    y14         c2_73       -0.5289613834414526       c2_74       -0.22686882013203016
    y14         c2_75       -0.20422146717869802      c2_77       -0.23274728917454396
    y14         c2_83       -0.6475079460358658       c2_86       -0.3312043686102651
    y14         c2_88       -0.345272148398921        c2_93       -0.15174988077590104
    y14         c2_98       -0.716396919404985        c2_102      -0.3912342344041666
    y14         c2_103      -0.21615994688640408      c2_108      -0.5556820816439642
    y14         c2_124      -0.24856401997467467      c2_127      -0.4233573206706967
    y14         c2_132      -0.29182216743967615      c2_137      -0.2478838505682752
    y14         c2_138      -0.5351758833085757       c2_142      -0.1429414046165781
    y14         c2_144      -0.19934652856865237      c2_148      -0.13754702535163713
    y14         c2_149      -0.7081619049837842       c2_150      -0.13904545014911893
    y14         c2_153      -1.0                      c2_156      -1.0
    y14         c2_161      -1.0                      c2_163      -0.3521000140387439
    y14         c2_165      -0.3796820025867381       c2_169      -0.4438861998820373
    y14         c2_174      -1.0                      c2_178      -0.5250921716582118
    y14         c2_192      -0.9150687007434416       c2_197      -1.0
    y14         c2_198      -1.0                      c2_199      -0.4625977881402055
    y14         c2_210      -0.16878991398105272      c2_213      -1.0
    y14         c2_227      -0.8248613419358141       c2_228      -1.0
    y14         c2_230      -0.29145050610856926      c2_240      -0.9936847693330138
    y14         c2_246      -0.5882392260674756       c2_251      -0.42119738145677427
    y14         c2_254      -1.0                      c2_256      -1.0
    y14         c2_272      -0.19651782330300754      c2_276      -0.4328569343897055
    y14         c2_278      -0.5839929484901935       c2_282      -1.0
    y14         c2_284      -1.0                      c2_285      -1.0
    y14         c2_288      -0.16337883288003643      c2_296      -0.9076125796975758
    y14         c2_305      -0.5931678861051166       c2_312      -1.0
    y14         c2_313      -0.6210970925035254       c2_315      -1.0
    y14         c2_318      -0.20724977854849         c2_320      -0.7854270641176254
    y14         c2_326      -1.0                      c2_327      -1.0
    y14         c2_330      -0.1940340769501524       c2_336      -0.16110361582404192
    y14         c2_338      -0.8495105908420052       c2_344      -0.19398243967229956
    y14         c2_345      -1.0                      c2_346      -0.27373925894300194
    y14         c2_355      -0.15122304188969543      c2_361      -1.0
    y14         c2_365      -0.23773605868498826      c2_368      -1.0
    y14         c2_375      -0.5402389701253769       c2_378      -0.28930518526842336
    y14         c2_381      -1.0                      c2_385      -0.14010229481745984
    y14         c2_389      -0.17377524193937652      c2_400      -0.14291869898043835
    y14         c2_403      -0.3095993630252062       c2_404      -0.5007432562922861
    y14         c2_411      -0.17244521588861353      c2_416      -1.0
    y14         c2_417      -0.327172434403342        c2_418      -1.0
    y14         c2_420      -0.20017639058982284      c2_425      -1.0
    y14         c2_426      -0.5778533525263339       c2_427      -1.0
    y14         c2_429      -1.0                      c2_438      -0.5763185091607725
    y14         c2_439      -0.15905289873310577      c2_440      -0.5771481816401111
    y14         c2_452      -0.633762349103974        c2_453      -0.3076176859699071
    y14         c2_458      -1.0                      c2_462      -0.2630724588206043
    y14         c2_468      -1.0                      c2_471      -0.1778728956002713
    y14         c2_486      -0.20790243363053942      c2_488      -0.5431485191617348
    y14         c2_493      -0.22949924840625208      c2_497      -0.32698155287171016
    y14         budget      1.0                       link14      1.0
    y15         c1_21_15    0.7125402837230264        c1_25_15    0.0
    y15         c1_26_15    0.1584890666216997        c1_32_15    0.6249086553456406
    y15         c1_34_15    0.5271829048066894        c1_35_15    0.6112338547843452
    y15         c1_42_15    0.7703100994773833        c1_51_15    0.67293941023514
    y15         c1_53_15    0.7246733795992002        c1_55_15    0.20400910005068318
    y15         c1_56_15    0.5639361007741488        c1_57_15    0.31852760279388725
    y15         c1_68_15    0.4547966781622169        c1_70_15    0.5216964917327016
    y15         c1_76_15    0.555036796085147         c1_80_15    0.0
    y15         c1_87_15    0.8110534244860969        c1_91_15    0.0
    y15         c1_92_15    0.6047812538349281        c1_99_15    0.558938046335896
    y15         c1_105_15   0.5694187083116715        c1_113_15   0.5635609459654227
    y15         c1_116_15   0.6390998524558911        c1_117_15   0.48937194628426894
    y15         c1_120_15   0.0                       c1_128_15   0.5628058187300102
    y15         c1_145_15   0.0                       c1_146_15   0.7339430744191525
    y15         c1_159_15   0.7383390731490387        c1_160_15   0.23388728879109366
    y15         c1_169_15   0.8644503551079716        c1_176_15   0.0
    y15         c1_180_15   0.66736727518805          c1_181_15   0.7908076457502842
    y15         c1_189_15   0.7088542842611132        c1_195_15   0.0
    y15         c1_196_15   0.0                       c1_200_15   0.0
    y15         c1_205_15   0.7279424759844303        c1_211_15   0.0
    y15         c1_222_15   0.7110506042489807        c1_223_15   0.41693461456377234
    y15         c1_225_15   0.5202020555535838        c1_231_15   0.853727301781902
    y15         c1_232_15   0.3783095761180235        c1_241_15   0.8066286117721461
    y15         c1_268_15   0.25492830716833326       c1_269_15   0.7496767386472545
    y15         c1_270_15   0.2652299081527416        c1_274_15   0.8080321320559412
    y15         c1_277_15   0.7555769923020156        c1_279_15   0.7813033968649803
    y15         c1_289_15   0.8532221701537331        c1_290_15   0.0
    y15         c1_310_15   0.4992509387506173        c1_321_15   0.7903943733355193
    y15         c1_322_15   0.7596257197917355        c1_329_15   0.8563551539968453
    y15         c1_334_15   0.707135818030604         c1_335_15   0.7911744484711154
    y15         c1_339_15   0.0                       c1_341_15   0.8613790058165329
    y15         c1_342_15   0.3783202374441509        c1_347_15   0.8241663566726172
    y15         c1_348_15   0.8266965649592383        c1_355_15   0.7567375469112994
    y15         c1_357_15   0.0                       c1_380_15   0.8543621203845541
    y15         c1_385_15   0.4929564203435819        c1_386_15   0.0
    y15         c1_392_15   0.4044329861007353        c1_393_15   0.0
    y15         c1_399_15   0.0                       c1_401_15   0.36054429257468823
    y15         c1_402_15   0.7820903831387733        c1_424_15   0.26066627749047977
    y15         c1_441_15   0.8371907921345018        c1_447_15   0.7103719774352284
    y15         c1_449_15   0.0                       c1_451_15   0.6705399254956668
    y15         c1_455_15   0.6588034520780122        c1_460_15   0.30649210765310997
    y15         c1_463_15   0.7375177528302894        c1_464_15   0.7346175815508786
    y15         c1_469_15   0.5556123735740748        c1_474_15   0.0
    y15         c1_479_15   0.0                       c1_481_15   0.7322505839567616
    y15         c1_482_15   0.8110551238341589        c1_484_15   0.531471134463171
    y15         c1_490_15   0.2924208756804678        c2_21       -0.28745971627697364
    y15         c2_25       -1.0                      c2_26       -0.8415109333783003
    y15         c2_32       -0.37509134465435945      c2_34       -0.4728170951933106
    y15         c2_35       -0.3887661452156548       c2_42       -0.22968990052261676
    y15         c2_51       -0.3270605897648599       c2_53       -0.27532662040079986
    y15         c2_55       -0.7959908999493168       c2_56       -0.43606389922585115
    y15         c2_57       -0.6814723972061127       c2_68       -0.5452033218377831
    y15         c2_70       -0.47830350826729845      c2_76       -0.444963203914853
    y15         c2_80       -1.0                      c2_87       -0.18894657551390315
    y15         c2_91       -1.0                      c2_92       -0.3952187461650719
    y15         c2_99       -0.44106195366410395      c2_105      -0.4305812916883285
    y15         c2_113      -0.4364390540345772       c2_116      -0.36090014754410893
    y15         c2_117      -0.5106280537157311       c2_120      -1.0
    y15         c2_128      -0.4371941812699898       c2_145      -1.0
    y15         c2_146      -0.2660569255808475       c2_159      -0.26166092685096126
    y15         c2_160      -0.7661127112089063       c2_169      -0.1355496448920284
    y15         c2_176      -1.0                      c2_180      -0.33263272481195005
    y15         c2_181      -0.20919235424971586      c2_189      -0.29114571573888687
    y15         c2_195      -1.0                      c2_196      -1.0
    y15         c2_200      -1.0                      c2_205      -0.2720575240155697
    y15         c2_211      -1.0                      c2_222      -0.2889493957510193
    y15         c2_223      -0.5830653854362277       c2_225      -0.47979794444641616
    y15         c2_231      -0.1462726982180979       c2_232      -0.6216904238819765
    y15         c2_241      -0.1933713882278539       c2_268      -0.7450716928316667
    y15         c2_269      -0.2503232613527456       c2_270      -0.7347700918472584
    y15         c2_274      -0.1919678679440588       c2_277      -0.24442300769798442
    y15         c2_279      -0.21869660313501968      c2_289      -0.1467778298462669
    y15         c2_290      -1.0                      c2_310      -0.5007490612493827
    y15         c2_321      -0.20960562666448068      c2_322      -0.24037428020826443
    y15         c2_329      -0.1436448460031547       c2_334      -0.29286418196939595
    y15         c2_335      -0.2088255515288846       c2_339      -1.0
    y15         c2_341      -0.13862099418346702      c2_342      -0.6216797625558491
    y15         c2_347      -0.1758336433273828       c2_348      -0.1733034350407617
    y15         c2_355      -0.2432624530887007       c2_357      -1.0
    y15         c2_380      -0.14563787961544594      c2_385      -0.5070435796564181
    y15         c2_386      -1.0                      c2_392      -0.5955670138992647
    y15         c2_393      -1.0                      c2_399      -1.0
    y15         c2_401      -0.6394557074253118       c2_402      -0.21790961686122673
    y15         c2_424      -0.7393337225095202       c2_441      -0.16280920786549824
    y15         c2_447      -0.28962802256477155      c2_449      -1.0
    y15         c2_451      -0.3294600745043333       c2_455      -0.34119654792198784
    y15         c2_460      -0.69350789234689         c2_463      -0.2624822471697105
    y15         c2_464      -0.26538241844912136      c2_469      -0.4443876264259253
    y15         c2_474      -1.0                      c2_479      -1.0
    y15         c2_481      -0.26774941604323843      c2_482      -0.18894487616584113
    y15         c2_484      -0.46852886553682904      c2_490      -0.7075791243195322
    y15         budget      1.0                       link15      1.0
    y16         c1_0_16     0.36027256512130046       c1_2_16     0.7794359238767066
    y16         c1_4_16     0.8220678731531741        c1_5_16     0.44685736307425805
    y16         c1_20_16    0.6689072372127732        c1_25_16    0.41857096926382464
    y16         c1_32_16    0.6714657552687285        c1_33_16    0.038420790095506696
    y16         c1_42_16    0.0                       c1_45_16    0.7008674477868048
    y16         c1_47_16    0.0                       c1_48_16    0.16597654586097077
    y16         c1_49_16    0.7953722020798478        c1_73_16    0.0
    y16         c1_80_16    0.5905983544765885        c1_83_16    0.8288172579756558
    y16         c1_88_16    0.7642491998211727        c1_98_16    0.0
    y16         c1_99_16    0.4993931013769337        c1_108_16   0.0
    y16         c1_113_16   0.46749435102015635       c1_124_16   0.0
    y16         c1_138_16   0.0                       c1_142_16   0.7440451387348839
    y16         c1_143_16   0.8511461623152621        c1_144_16   0.840250975930515
    y16         c1_156_16   0.0                       c1_157_16   0.07365690370853006
    y16         c1_161_16   0.1198967986321704        c1_169_16   0.0
    y16         c1_174_16   0.8051462984804514        c1_178_16   0.7807056162228843
    y16         c1_192_16   0.6244417859914742        c1_195_16   0.7805212976064554
    y16         c1_196_16   0.7709160739618179        c1_197_16   0.296368265007915
    y16         c1_210_16   0.8588141474856359        c1_211_16   0.6212581946602969
    y16         c1_213_16   0.8592569622698168        c1_225_16   0.5244215712996498
    y16         c1_228_16   0.3939717253936905        c1_229_16   0.7147300249464399
    y16         c1_230_16   0.8092375894993687        c1_231_16   0.6018454414033354
    y16         c1_234_16   0.78745047791063          c1_237_16   0.7220532516358866
    y16         c1_248_16   0.46704730848365783       c1_251_16   0.1688644441286744
    y16         c1_254_16   0.7997029912690694        c1_256_16   0.0
    y16         c1_276_16   0.7274921683050999        c1_278_16   0.03360313008661697
    y16         c1_282_16   0.474887229332837         c1_284_16   0.6777457008437371
    y16         c1_285_16   0.7687724391857134        c1_288_16   0.3549364817206573
    y16         c1_290_16   0.5401402130431172        c1_296_16   0.0
    y16         c1_299_16   0.7343255580863974        c1_303_16   0.813372606037694
    y16         c1_305_16   0.0                       c1_312_16   0.47714489432250695
    y16         c1_315_16   0.19843611352878532       c1_320_16   0.8327427365955528
    y16         c1_323_16   0.8407576170087667        c1_326_16   0.5188573226814179
    y16         c1_327_16   0.7036481897722553        c1_338_16   0.0
    y16         c1_339_16   0.7928145403004144        c1_345_16   0.616494111498961
    y16         c1_347_16   0.0                       c1_348_16   0.5334337131267992
    y16         c1_355_16   0.29770288754391905       c1_361_16   0.7744669853531584
    y16         c1_368_16   0.0                       c1_379_16   0.7380251891730836
    y16         c1_381_16   0.6147749281281358        c1_385_16   0.0
    y16         c1_399_16   0.725145993675154         c1_404_16   0.0
    y16         c1_416_16   0.8362617510543009        c1_417_16   0.5400691440848747
    y16         c1_418_16   0.6943041868921744        c1_421_16   0.8078266874550084
    y16         c1_425_16   0.0                       c1_426_16   0.0
    y16         c1_427_16   0.4985597561980606        c1_429_16   0.3427022676016557
    y16         c1_438_16   0.8061117939479865        c1_440_16   0.6715555974313261
    y16         c1_447_16   0.8322155167208651        c1_452_16   0.8606107061467625
    y16         c1_458_16   0.0                       c1_460_16   0.8047963818415663
    y16         c1_463_16   0.3643845563031054        c1_469_16   0.2627210874288254
    y16         c1_476_16   0.7817233690213068        c1_479_16   0.8317188507465556
    y16         c1_481_16   0.11806404734360565       c1_486_16   0.6444154003426842
    y16         c1_489_16   0.7560670131624385        c1_490_16   0.7523579963611347
    y16         c2_0        -0.6397274348786995       c2_2        -0.22056407612329348
    y16         c2_4        -0.17793212684682594      c2_5        -0.553142636925742
    y16         c2_20       -0.33109276278722677      c2_25       -0.5814290307361754
    y16         c2_32       -0.32853424473127146      c2_33       -0.9615792099044933
    y16         c2_42       -1.0                      c2_45       -0.29913255221319524
    y16         c2_47       -1.0                      c2_48       -0.8340234541390292
    y16         c2_49       -0.20462779792015218      c2_73       -1.0
    y16         c2_80       -0.4094016455234115       c2_83       -0.17118274202434422
    y16         c2_88       -0.23575080017882727      c2_98       -1.0
    y16         c2_99       -0.5006068986230663       c2_108      -1.0
    y16         c2_113      -0.5325056489798436       c2_124      -1.0
    y16         c2_138      -1.0                      c2_142      -0.2559548612651161
    y16         c2_143      -0.14885383768473787      c2_144      -0.15974902406948494
    y16         c2_156      -1.0                      c2_157      -0.9263430962914699
    y16         c2_161      -0.8801032013678296       c2_169      -1.0
    y16         c2_174      -0.19485370151954867      c2_178      -0.21929438377711577
    y16         c2_192      -0.3755582140085259       c2_195      -0.21947870239354464
    y16         c2_196      -0.229083926038182        c2_197      -0.703631734992085
    y16         c2_210      -0.14118585251436416      c2_211      -0.3787418053397032
    y16         c2_213      -0.14074303773018318      c2_225      -0.4755784287003502
    y16         c2_228      -0.6060282746063095       c2_229      -0.2852699750535601
    y16         c2_230      -0.19076241050063125      c2_231      -0.39815455859666465
    y16         c2_234      -0.21254952208936997      c2_237      -0.2779467483641133
    y16         c2_248      -0.5329526915163422       c2_251      -0.8311355558713256
    y16         c2_254      -0.20029700873093056      c2_256      -1.0
    y16         c2_276      -0.27250783169490017      c2_278      -0.966396869913383
    y16         c2_282      -0.525112770667163        c2_284      -0.3222542991562629
    y16         c2_285      -0.2312275608142866       c2_288      -0.6450635182793427
    y16         c2_290      -0.4598597869568828       c2_296      -1.0
    y16         c2_299      -0.2656744419136025       c2_303      -0.186627393962306
    y16         c2_305      -1.0                      c2_312      -0.522855105677493
    y16         c2_315      -0.8015638864712147       c2_320      -0.16725726340444727
    y16         c2_323      -0.15924238299123333      c2_326      -0.4811426773185821
    y16         c2_327      -0.29635181022774476      c2_338      -1.0
    y16         c2_339      -0.2071854596995856       c2_345      -0.383505888501039
    y16         c2_347      -1.0                      c2_348      -0.4665662868732008
    y16         c2_355      -0.702297112456081        c2_361      -0.22553301464684158
    y16         c2_368      -1.0                      c2_379      -0.26197481082691637
    y16         c2_381      -0.3852250718718641       c2_385      -1.0
    y16         c2_399      -0.274854006324846        c2_404      -1.0
    y16         c2_416      -0.16373824894569905      c2_417      -0.4599308559151253
    y16         c2_418      -0.3056958131078256       c2_421      -0.19217331254499154
    y16         c2_425      -1.0                      c2_426      -1.0
    y16         c2_427      -0.5014402438019394       c2_429      -0.6572977323983443
    y16         c2_438      -0.19388820605201348      c2_440      -0.32844440256867397
    y16         c2_447      -0.16778448327913492      c2_452      -0.1393892938532375
    y16         c2_458      -1.0                      c2_460      -0.1952036181584337
    y16         c2_463      -0.6356154436968946       c2_469      -0.7372789125711746
    y16         c2_476      -0.21827663097869318      c2_479      -0.1682811492534444
    y16         c2_481      -0.8819359526563944       c2_486      -0.3555845996573158
    y16         c2_489      -0.24393298683756143      c2_490      -0.2476420036388654
    y16         budget      1.0                       link16      1.0
    y17         c1_21_17    0.0                       c1_26_17    0.22162252784632153
    y17         c1_32_17    0.7780074036338795        c1_56_17    0.14424565016278224
    y17         c1_57_17    0.8343343391537769        c1_63_17    0.8453078938204729
    y17         c1_70_17    0.17248192771754134       c1_79_17    0.5554108364119965
    y17         c1_87_17    0.10535826612773824       c1_99_17    0.851929248709365
    y17         c1_104_17   0.5091903568834818        c1_113_17   0.8607964898562429
    y17         c1_114_17   0.08863280912034421       c1_128_17   0.8435849023302128
    y17         c1_145_17   0.7847677068785828        c1_146_17   0.0
    y17         c1_175_17   0.6238803456989253        c1_185_17   0.5652565363107753
    y17         c1_189_17   0.0                       c1_195_17   0.7550202587241167
    y17         c1_196_17   0.7734971557002438        c1_221_17   0.7999803376915056
    y17         c1_222_17   0.0                       c1_225_17   0.8442287150275041
    y17         c1_229_17   0.8397006485629817        c1_241_17   0.0
    y17         c1_242_17   0.8132503067261918        c1_244_17   0.7401964057759081
    y17         c1_250_17   0.0                       c1_270_17   0.19716176477096814
    y17         c1_319_17   0.7707453540091411        c1_321_17   0.0
    y17         c1_322_17   0.0                       c1_334_17   0.8075346608910152
    y17         c1_335_17   0.2731604744554762        c1_370_17   0.749016993518316
    y17         c1_380_17   0.0                       c1_401_17   0.7208601820176742
    y17         c1_406_17   0.0                       c1_408_17   0.6708300198410186
    y17         c1_451_17   0.0                       c1_460_17   0.6396721321692018
    y17         c1_461_17   0.5306756114324161        c1_464_17   0.864017127634014
    y17         c1_474_17   0.8216287763823372        c1_476_17   0.792306958327944
    y17         c1_479_17   0.7197162457358905        c1_482_17   0.8572147872787345
    y17         c1_487_17   0.6639413689751985        c1_490_17   0.7151948056119546
    y17         c1_499_17   0.12381604945795288       c2_21       -1.0
    y17         c2_26       -0.7783774721536785       c2_32       -0.2219925963661204
    y17         c2_56       -0.8557543498372178       c2_57       -0.1656656608462231
    y17         c2_63       -0.15469210617952714      c2_70       -0.8275180722824587
    y17         c2_79       -0.4445891635880035       c2_87       -0.8946417338722618
    y17         c2_99       -0.148070751290635        c2_104      -0.4908096431165182
    y17         c2_113      -0.1392035101437571       c2_114      -0.9113671908796558
    y17         c2_128      -0.1564150976697872       c2_145      -0.21523229312141717
    y17         c2_146      -1.0                      c2_175      -0.37611965430107475
    y17         c2_185      -0.43474346368922473      c2_189      -1.0
    y17         c2_195      -0.2449797412758833       c2_196      -0.2265028442997562
    y17         c2_221      -0.2000196623084944       c2_222      -1.0
    y17         c2_225      -0.15577128497249593      c2_229      -0.16029935143701834
    y17         c2_241      -1.0                      c2_242      -0.18674969327380814
    y17         c2_244      -0.25980359422409194      c2_250      -1.0
    y17         c2_270      -0.8028382352290319       c2_319      -0.22925464599085885
    y17         c2_321      -1.0                      c2_322      -1.0
    y17         c2_334      -0.1924653391089848       c2_335      -0.7268395255445238
    y17         c2_370      -0.250983006481684        c2_380      -1.0
    y17         c2_401      -0.2791398179823258       c2_406      -1.0
    y17         c2_408      -0.3291699801589813       c2_451      -1.0
    y17         c2_460      -0.3603278678307981       c2_461      -0.46932438856758385
    y17         c2_464      -0.13598287236598602      c2_474      -0.17837122361766278
    y17         c2_476      -0.20769304167205602      c2_479      -0.2802837542641095
    y17         c2_482      -0.14278521272126551      c2_487      -0.33605863102480144
    y17         c2_490      -0.28480519438804547      c2_499      -0.8761839505420471
    y17         budget      1.0                       link17      1.0
    y18         c1_2_18     0.0                       c1_5_18     0.5266055399920528
    y18         c1_33_18    0.0                       c1_40_18    0.3472702879780226
    y18         c1_42_18    0.563092372339466         c1_45_18    0.5612720905688563
    y18         c1_47_18    0.0                       c1_48_18    0.0
    y18         c1_49_18    0.5711753020370234        c1_52_18    0.6958659020325129
    y18         c1_58_18    0.6375858387736477        c1_60_18    0.5346598829807592
    y18         c1_73_18    0.0                       c1_77_18    0.5001049942559243
    y18         c1_83_18    0.4771588667071087        c1_89_18    0.708134380313231
    y18         c1_90_18    0.8418329902205637        c1_102_18   0.8111699065352769
    y18         c1_106_18   0.6433637007143413        c1_108_18   0.0
    y18         c1_112_18   0.48735993533194966       c1_119_18   0.8458936736753244
    y18         c1_124_18   0.0                       c1_138_18   0.6354364235809138
    y18         c1_143_18   0.0                       c1_147_18   0.7700156534190415
    y18         c1_156_18   0.6872190157337544        c1_157_18   0.0
    y18         c1_161_18   0.4565253967924915        c1_163_18   0.812802470018684
    y18         c1_166_18   0.17231788078194232       c1_169_18   0.2896006653435542
    y18         c1_174_18   0.7239498716175061        c1_192_18   0.0
    y18         c1_197_18   0.7057171395718498        c1_199_18   0.73974438115823
    y18         c1_216_18   0.8296115082701822        c1_228_18   0.8637029966675869
    y18         c1_231_18   0.32513624141881936       c1_236_18   0.1339760109491962
    y18         c1_237_18   0.0                       c1_248_18   0.0
    y18         c1_251_18   0.0                       c1_253_18   0.7021533358739679
    y18         c1_256_18   0.6080217908700952        c1_276_18   0.0
    y18         c1_282_18   0.08659572786666703       c1_288_18   0.0
    y18         c1_291_18   0.6196013102696454        c1_293_18   0.4467361435407884
    y18         c1_296_18   0.6500866232174175        c1_299_18   0.0
    y18         c1_303_18   0.0                       c1_305_18   0.0
    y18         c1_314_18   0.0                       c1_317_18   0.699344396411154
    y18         c1_318_18   0.088048176474679         c1_323_18   0.0
    y18         c1_326_18   0.7518957378866615        c1_329_18   0.8115742640577639
    y18         c1_336_18   0.7568579823645962        c1_338_18   0.631410682751115
    y18         c1_345_18   0.8611013389803375        c1_347_18   0.0
    y18         c1_368_18   0.6376463334509301        c1_382_18   0.7179459649263363
    y18         c1_385_18   0.838091721715626         c1_389_18   0.3368614225294122
    y18         c1_396_18   0.0                       c1_397_18   0.8058393913380498
    y18         c1_403_18   0.7982479723360552        c1_404_18   0.8486206288353584
    y18         c1_421_18   0.3859874431606416        c1_423_18   0.6231710359888056
    y18         c1_425_18   0.7059884509785366        c1_426_18   0.4310164868259103
    y18         c1_427_18   0.0                       c1_428_18   0.8385929709809451
    y18         c1_437_18   0.8420927477520584        c1_440_18   0.0
    y18         c1_442_18   0.7176770615932613        c1_447_18   0.8118520943195887
    y18         c1_454_18   0.7638163039296919        c1_458_18   0.35453173568895846
    y18         c1_463_18   0.4384919125612474        c1_471_18   0.0
    y18         c1_481_18   0.371803622096586         c1_489_18   0.07192776171003346
    y18         c2_2        -1.0                      c2_5        -0.4733944600079471
    y18         c2_33       -1.0                      c2_40       -0.6527297120219774
    y18         c2_42       -0.43690762766053404      c2_45       -0.4387279094311437
    y18         c2_47       -1.0                      c2_48       -1.0
    y18         c2_49       -0.42882469796297656      c2_52       -0.3041340979674872
    y18         c2_58       -0.3624141612263523       c2_60       -0.46534011701924083
    y18         c2_73       -1.0                      c2_77       -0.49989500574407575
    y18         c2_83       -0.5228411332928913       c2_89       -0.29186561968676905
    y18         c2_90       -0.15816700977943637      c2_102      -0.1888300934647231
    y18         c2_106      -0.35663629928565865      c2_108      -1.0
    y18         c2_112      -0.5126400646680503       c2_119      -0.15410632632467558
    y18         c2_124      -1.0                      c2_138      -0.3645635764190862
    y18         c2_143      -1.0                      c2_147      -0.22998434658095848
    y18         c2_156      -0.31278098426624557      c2_157      -1.0
    y18         c2_161      -0.5434746032075085       c2_163      -0.18719752998131595
    y18         c2_166      -0.8276821192180577       c2_169      -0.7103993346564458
    y18         c2_174      -0.27605012838249393      c2_192      -1.0
    y18         c2_197      -0.2942828604281502       c2_199      -0.26025561884177
    y18         c2_216      -0.17038849172981785      c2_228      -0.13629700333241312
    y18         c2_231      -0.6748637585811806       c2_236      -0.8660239890508038
    y18         c2_237      -1.0                      c2_248      -1.0
    y18         c2_251      -1.0                      c2_253      -0.2978466641260321
    y18         c2_256      -0.3919782091299048       c2_276      -1.0
    y18         c2_282      -0.913404272133333        c2_288      -1.0
    y18         c2_291      -0.3803986897303547       c2_293      -0.5532638564592116
    y18         c2_296      -0.3499133767825825       c2_299      -1.0
    y18         c2_303      -1.0                      c2_305      -1.0
    y18         c2_314      -1.0                      c2_317      -0.300655603588846
    y18         c2_318      -0.911951823525321        c2_323      -1.0
    y18         c2_326      -0.24810426211333847      c2_329      -0.1884257359422361
    y18         c2_336      -0.24314201763540383      c2_338      -0.36858931724888505
    y18         c2_345      -0.1388986610196625       c2_347      -1.0
    y18         c2_368      -0.3623536665490699       c2_382      -0.28205403507366367
    y18         c2_385      -0.16190827828437407      c2_389      -0.6631385774705878
    y18         c2_396      -1.0                      c2_397      -0.19416060866195017
    y18         c2_403      -0.20175202766394484      c2_404      -0.15137937116464165
    y18         c2_421      -0.6140125568393584       c2_423      -0.3768289640111944
    y18         c2_425      -0.2940115490214634       c2_426      -0.5689835131740897
    y18         c2_427      -1.0                      c2_428      -0.16140702901905493
    y18         c2_437      -0.15790725224794153      c2_440      -1.0
    y18         c2_442      -0.2823229384067387       c2_447      -0.18814790568041131
    y18         c2_454      -0.2361836960703081       c2_458      -0.6454682643110415
    y18         c2_463      -0.5615080874387526       c2_471      -1.0
    y18         c2_481      -0.628196377903414        c2_489      -0.9280722382899665
    y18         budget      1.0                       link18      1.0
    y19         c1_15_19    0.7091550000250655        c1_16_19    0.0
    y19         c1_38_19    0.0                       c1_39_19    0.0
    y19         c1_41_19    0.0                       c1_52_19    0.08579124075878841
    y19         c1_58_19    0.48032905033806517       c1_62_19    0.47947016539695875
    y19         c1_72_19    0.0                       c1_94_19    0.0
    y19         c1_106_19   0.5759871213630269        c1_115_19   0.6185680559759675
    y19         c1_118_19   0.0                       c1_123_19   0.6687061277834723
    y19         c1_130_19   0.0                       c1_139_19   0.0
    y19         c1_143_19   0.8522871369683469        c1_147_19   0.5772626698301966
    y19         c1_162_19   0.7709529677604277        c1_164_19   0.0
    y19         c1_166_19   0.5882397775648931        c1_170_19   0.7996362143369639
    y19         c1_171_19   0.0                       c1_172_19   0.8463233257344496
    y19         c1_182_19   0.7964711004336748        c1_204_19   0.7454450215838309
    y19         c1_217_19   0.0                       c1_219_19   0.7840380844826474
    y19         c1_224_19   0.05438475402254761       c1_236_19   0.6517452720502246
    y19         c1_261_19   0.5944646239965892        c1_292_19   0.6857006903082838
    y19         c1_293_19   0.5029497801184164        c1_303_19   0.850484957138198
    y19         c1_314_19   0.7787566617504496        c1_317_19   0.0
    y19         c1_318_19   0.8532470185736685        c1_323_19   0.8129333404781401
    y19         c1_353_19   0.0                       c1_354_19   0.46993338273756324
    y19         c1_356_19   0.3453502553946216        c1_360_19   0.7948562252501951
    y19         c1_364_19   0.0                       c1_369_19   0.7721420994000471
    y19         c1_371_19   0.41878830312032245       c1_377_19   0.833353000553813
    y19         c1_382_19   0.05509244292012583       c1_384_19   0.0
    y19         c1_389_19   0.8308703090283966        c1_396_19   0.7289784349889399
    y19         c1_397_19   0.802789839819029         c1_405_19   0.0
    y19         c1_407_19   0.0                       c1_410_19   0.8028204417713838
    y19         c1_414_19   0.6455717469826892        c1_419_19   0.0
    y19         c1_423_19   0.511796341256461         c1_428_19   0.0
    y19         c1_432_19   0.8160948164714901        c1_437_19   0.10199914912439179
    y19         c1_454_19   0.835958525693394         c1_459_19   0.7522329246515554
    y19         c1_466_19   0.4692797153077808        c1_470_19   0.0
    y19         c1_471_19   0.8306227455628615        c1_472_19   0.576854203040431
    y19         c1_473_19   0.40060284078096275       c1_492_19   0.7815889436167291
    y19         c2_15       -0.2908449999749345       c2_16       -1.0
    y19         c2_38       -1.0                      c2_39       -1.0
    y19         c2_41       -1.0                      c2_52       -0.9142087592412116
    y19         c2_58       -0.5196709496619348       c2_62       -0.5205298346030413
    y19         c2_72       -1.0                      c2_94       -1.0
    y19         c2_106      -0.4240128786369731       c2_115      -0.38143194402403247
    y19         c2_118      -1.0                      c2_123      -0.33129387221652773
    y19         c2_130      -1.0                      c2_139      -1.0
    y19         c2_143      -0.14771286303165304      c2_147      -0.4227373301698034
    y19         c2_162      -0.22904703223957232      c2_164      -1.0
    y19         c2_166      -0.4117602224351069       c2_170      -0.20036378566303614
    y19         c2_171      -1.0                      c2_172      -0.15367667426555043
    y19         c2_182      -0.20352889956632525      c2_204      -0.2545549784161691
    y19         c2_217      -1.0                      c2_219      -0.21596191551735253
    y19         c2_224      -0.9456152459774524       c2_236      -0.34825472794977536
    y19         c2_261      -0.4055353760034108       c2_292      -0.31429930969171616
    y19         c2_293      -0.4970502198815836       c2_303      -0.1495150428618019
    y19         c2_314      -0.22124333824955045      c2_317      -1.0
    y19         c2_318      -0.14675298142633156      c2_323      -0.18706665952185983
    y19         c2_353      -1.0                      c2_354      -0.5300666172624368
    y19         c2_356      -0.6546497446053784       c2_360      -0.20514377474980494
    y19         c2_364      -1.0                      c2_369      -0.22785790059995292
    y19         c2_371      -0.5812116968796776       c2_377      -0.16664699944618705
    y19         c2_382      -0.9449075570798742       c2_384      -1.0
    y19         c2_389      -0.16912969097160338      c2_396      -0.2710215650110601
    y19         c2_397      -0.197210160180971        c2_405      -1.0
    y19         c2_407      -1.0                      c2_410      -0.19717955822861616
    y19         c2_414      -0.3544282530173108       c2_419      -1.0
    y19         c2_423      -0.48820365874353894      c2_428      -1.0
    y19         c2_432      -0.18390518352850987      c2_437      -0.8980008508756082
    y19         c2_454      -0.16404147430660596      c2_459      -0.24776707534844455
    y19         c2_466      -0.5307202846922192       c2_470      -1.0
    y19         c2_471      -0.16937725443713844      c2_472      -0.423145796959569
    y19         c2_473      -0.5993971592190372       c2_492      -0.2184110563832709
    y19         budget      1.0                       link19      1.0
    MARKER                'MARKER'                 'INTEND'
    r0          cover       2.0                       c1_0_1      1.0
    r0          c1_0_2      1.0                       c1_0_14     1.0
    r0          c1_0_16     1.0                       c2_0        1.0
    r1          cover       4.0                       c2_1        1.0
    r2          cover       1.0                       c1_2_0      1.0
    r2          c1_2_1      1.0                       c1_2_2      1.0
    r2          c1_2_5      1.0                       c1_2_9      1.0
    r2          c1_2_11     1.0                       c1_2_16     1.0
    r2          c1_2_18     1.0                       c2_2        1.0
    r3          cover       3.0                       c1_3_7      1.0
    r3          c2_3        1.0
    r4          cover       1.0                       c1_4_14     1.0
    r4          c1_4_16     1.0                       c2_4        1.0
    r5          cover       3.0                       c1_5_1      1.0
    r5          c1_5_2      1.0                       c1_5_5      1.0
    r5          c1_5_14     1.0                       c1_5_16     1.0
    r5          c1_5_18     1.0                       c2_5        1.0
    r6          cover       2.0                       c2_6        1.0
    r7          cover       3.0                       c1_7_7      1.0
    r7          c2_7        1.0
    r8          cover       1.0                       c1_8_14     1.0
    r8          c2_8        1.0
    r9          cover       5.0                       c1_9_14     1.0
    r9          c2_9        1.0
    r10         cover       2.0                       c1_10_7     1.0
    r10         c2_10       1.0
    r11         cover       3.0                       c2_11       1.0
    r12         cover       5.0                       c2_12       1.0
    r13         cover       4.0                       c2_13       1.0
    r14         cover       4.0                       c2_14       1.0
    r15         cover       3.0                       c1_15_4     1.0
    r15         c1_15_5     1.0                       c1_15_19    1.0
    r15         c2_15       1.0
    r16         cover       2.0                       c1_16_4     1.0
    r16         c1_16_5     1.0                       c1_16_10    1.0
    r16         c1_16_19    1.0                       c2_16       1.0
    r17         cover       1.0                       c2_17       1.0
    r18         cover       4.0                       c1_18_7     1.0
    r18         c2_18       1.0
    r19         cover       5.0                       c1_19_7     1.0
    r19         c2_19       1.0
    r20         cover       5.0                       c1_20_2     1.0
    r20         c1_20_14    1.0                       c1_20_16    1.0
    r20         c2_20       1.0
    r21         cover       5.0                       c1_21_8     1.0
    r21         c1_21_12    1.0                       c1_21_13    1.0
    r21         c1_21_15    1.0                       c1_21_17    1.0
    r21         c2_21       1.0
    r22         cover       4.0                       c1_22_14    1.0
    r22         c2_22       1.0
    r23         cover       3.0                       c2_23       1.0
    r24         cover       4.0                       c1_24_0     1.0
    r24         c1_24_3     1.0                       c1_24_6     1.0
    r24         c1_24_9     1.0                       c1_24_11    1.0
    r24         c2_24       1.0
    r25         cover       2.0                       c1_25_0     1.0
    r25         c1_25_2     1.0                       c1_25_3     1.0
    r25         c1_25_11    1.0                       c1_25_12    1.0
    r25         c1_25_15    1.0                       c1_25_16    1.0
    r25         c2_25       1.0
    r26         cover       2.0                       c1_26_8     1.0
    r26         c1_26_12    1.0                       c1_26_13    1.0
    r26         c1_26_15    1.0                       c1_26_17    1.0
    r26         c2_26       1.0
    r27         cover       3.0                       c1_27_7     1.0
    r27         c2_27       1.0
    r28         cover       5.0                       c2_28       1.0
    r29         cover       4.0                       c2_29       1.0
    r30         cover       3.0                       c1_30_14    1.0
    r30         c2_30       1.0
    r31         cover       1.0                       c1_31_6     1.0
    r31         c1_31_9     1.0                       c2_31       1.0
    r32         cover       2.0                       c1_32_2     1.0
    r32         c1_32_12    1.0                       c1_32_15    1.0
    r32         c1_32_16    1.0                       c1_32_17    1.0
    r32         c2_32       1.0
    r33         cover       1.0                       c1_33_0     1.0
    r33         c1_33_1     1.0                       c1_33_2     1.0
    r33         c1_33_5     1.0                       c1_33_11    1.0
    r33         c1_33_14    1.0                       c1_33_16    1.0
    r33         c1_33_18    1.0                       c2_33       1.0
    r34         cover       1.0                       c1_34_3     1.0
    r34         c1_34_8     1.0                       c1_34_13    1.0
    r34         c1_34_15    1.0                       c2_34       1.0
    r35         cover       4.0                       c1_35_0     1.0
    r35         c1_35_2     1.0                       c1_35_3     1.0
    r35         c1_35_6     1.0                       c1_35_11    1.0
    r35         c1_35_15    1.0                       c2_35       1.0
    r36         cover       3.0                       c1_36_1     1.0
    r36         c1_36_5     1.0                       c1_36_14    1.0
    r36         c2_36       1.0
    r37         cover       1.0                       c1_37_1     1.0
    r37         c1_37_4     1.0                       c1_37_5     1.0
    r37         c2_37       1.0
    r38         cover       1.0                       c1_38_4     1.0
    r38         c1_38_5     1.0                       c1_38_10    1.0
    r38         c1_38_19    1.0                       c2_38       1.0
    r39         cover       5.0                       c1_39_5     1.0
    r39         c1_39_9     1.0                       c1_39_10    1.0
    r39         c1_39_19    1.0                       c2_39       1.0
    r40         cover       5.0                       c1_40_1     1.0
    r40         c1_40_4     1.0                       c1_40_5     1.0
    r40         c1_40_14    1.0                       c1_40_18    1.0
    r40         c2_40       1.0
    r41         cover       1.0                       c1_41_4     1.0
    r41         c1_41_5     1.0                       c1_41_10    1.0
    r41         c1_41_19    1.0                       c2_41       1.0
    r42         cover       4.0                       c1_42_0     1.0
    r42         c1_42_1     1.0                       c1_42_2     1.0
    r42         c1_42_11    1.0                       c1_42_14    1.0
    r42         c1_42_15    1.0                       c1_42_16    1.0
    r42         c1_42_18    1.0                       c2_42       1.0
    r43         cover       1.0                       c1_43_7     1.0
    r43         c2_43       1.0
    r44         cover       2.0                       c1_44_1     1.0
    r44         c1_44_14    1.0                       c2_44       1.0
    r45         cover       3.0                       c1_45_1     1.0
    r45         c1_45_5     1.0                       c1_45_14    1.0
    r45         c1_45_16    1.0                       c1_45_18    1.0
    r45         c2_45       1.0
    r46         cover       4.0                       c1_46_7     1.0
    r46         c2_46       1.0
    r47         cover       5.0                       c1_47_0     1.0
    r47         c1_47_1     1.0                       c1_47_2     1.0
    r47         c1_47_5     1.0                       c1_47_11    1.0
    r47         c1_47_14    1.0                       c1_47_16    1.0
    r47         c1_47_18    1.0                       c2_47       1.0
    r48         cover       3.0                       c1_48_0     1.0
    r48         c1_48_1     1.0                       c1_48_2     1.0
    r48         c1_48_5     1.0                       c1_48_11    1.0
    r48         c1_48_14    1.0                       c1_48_16    1.0
    r48         c1_48_18    1.0                       c2_48       1.0
    r49         cover       2.0                       c1_49_1     1.0
    r49         c1_49_5     1.0                       c1_49_14    1.0
    r49         c1_49_16    1.0                       c1_49_18    1.0
    r49         c2_49       1.0
    r50         cover       4.0                       c1_50_4     1.0
    r50         c1_50_5     1.0                       c2_50       1.0
    r51         cover       4.0                       c1_51_0     1.0
    r51         c1_51_2     1.0                       c1_51_3     1.0
    r51         c1_51_6     1.0                       c1_51_11    1.0
    r51         c1_51_15    1.0                       c2_51       1.0
    r52         cover       4.0                       c1_52_0     1.0
    r52         c1_52_1     1.0                       c1_52_5     1.0
    r52         c1_52_9     1.0                       c1_52_10    1.0
    r52         c1_52_18    1.0                       c1_52_19    1.0
    r52         c2_52       1.0
    r53         cover       5.0                       c1_53_8     1.0
    r53         c1_53_13    1.0                       c1_53_15    1.0
    r53         c2_53       1.0
    r54         cover       3.0                       c1_54_6     1.0
    r54         c1_54_9     1.0                       c2_54       1.0
    r55         cover       2.0                       c1_55_8     1.0
    r55         c1_55_12    1.0                       c1_55_13    1.0
    r55         c1_55_15    1.0                       c2_55       1.0
    r56         cover       1.0                       c1_56_2     1.0
    r56         c1_56_8     1.0                       c1_56_12    1.0
    r56         c1_56_15    1.0                       c1_56_17    1.0
    r56         c2_56       1.0
    r57         cover       1.0                       c1_57_8     1.0
    r57         c1_57_12    1.0                       c1_57_13    1.0
    r57         c1_57_15    1.0                       c1_57_17    1.0
    r57         c2_57       1.0
    r58         cover       1.0                       c1_58_1     1.0
    r58         c1_58_4     1.0                       c1_58_5     1.0
    r58         c1_58_18    1.0                       c1_58_19    1.0
    r58         c2_58       1.0
    r59         cover       3.0                       c2_59       1.0
    r60         cover       4.0                       c1_60_1     1.0
    r60         c1_60_5     1.0                       c1_60_14    1.0
    r60         c1_60_18    1.0                       c2_60       1.0
    r61         cover       2.0                       c1_61_0     1.0
    r61         c1_61_6     1.0                       c1_61_9     1.0
    r61         c1_61_10    1.0                       c2_61       1.0
    r62         cover       5.0                       c1_62_9     1.0
    r62         c1_62_10    1.0                       c1_62_19    1.0
    r62         c2_62       1.0
    r63         cover       4.0                       c1_63_17    1.0
    r63         c2_63       1.0
    r64         cover       5.0                       c2_64       1.0
    r65         cover       4.0                       c2_65       1.0
    r66         cover       1.0                       c1_66_7     1.0
    r66         c2_66       1.0
    r67         cover       4.0                       c1_67_4     1.0
    r67         c2_67       1.0
    r68         cover       1.0                       c1_68_3     1.0
    r68         c1_68_6     1.0                       c1_68_11    1.0
    r68         c1_68_13    1.0                       c1_68_15    1.0
    r68         c2_68       1.0
    r69         cover       1.0                       c2_69       1.0
    r70         cover       2.0                       c1_70_2     1.0
    r70         c1_70_8     1.0                       c1_70_12    1.0
    r70         c1_70_15    1.0                       c1_70_17    1.0
    r70         c2_70       1.0
    r71         cover       2.0                       c1_71_14    1.0
    r71         c2_71       1.0
    r72         cover       5.0                       c1_72_4     1.0
    r72         c1_72_5     1.0                       c1_72_10    1.0
    r72         c1_72_19    1.0                       c2_72       1.0
    r73         cover       5.0                       c1_73_0     1.0
    r73         c1_73_1     1.0                       c1_73_2     1.0
    r73         c1_73_5     1.0                       c1_73_11    1.0
    r73         c1_73_14    1.0                       c1_73_16    1.0
    r73         c1_73_18    1.0                       c2_73       1.0
    r74         cover       3.0                       c1_74_1     1.0
    r74         c1_74_4     1.0                       c1_74_5     1.0
    r74         c1_74_14    1.0                       c2_74       1.0
    r75         cover       3.0                       c1_75_14    1.0
    r75         c2_75       1.0
    r76         cover       5.0                       c1_76_3     1.0
    r76         c1_76_8     1.0                       c1_76_13    1.0
    r76         c1_76_15    1.0                       c2_76       1.0
    r77         cover       2.0                       c1_77_1     1.0
    r77         c1_77_4     1.0                       c1_77_5     1.0
    r77         c1_77_14    1.0                       c1_77_18    1.0
    r77         c2_77       1.0
    r78         cover       1.0                       c1_78_7     1.0
    r78         c2_78       1.0
    r79         cover       3.0                       c1_79_12    1.0
    r79         c1_79_17    1.0                       c2_79       1.0
    r80         cover       2.0                       c1_80_0     1.0
    r80         c1_80_2     1.0                       c1_80_3     1.0
    r80         c1_80_11    1.0                       c1_80_12    1.0
    r80         c1_80_15    1.0                       c1_80_16    1.0
    r80         c2_80       1.0
    r81         cover       1.0                       c2_81       1.0
    r82         cover       3.0                       c1_82_7     1.0
    r82         c2_82       1.0
    r83         cover       2.0                       c1_83_1     1.0
    r83         c1_83_5     1.0                       c1_83_14    1.0
    r83         c1_83_16    1.0                       c1_83_18    1.0
    r83         c2_83       1.0
    r84         cover       5.0                       c1_84_0     1.0
    r84         c1_84_3     1.0                       c1_84_6     1.0
    r84         c1_84_9     1.0                       c1_84_11    1.0
    r84         c2_84       1.0
    r85         cover       2.0                       c1_85_4     1.0
    r85         c2_85       1.0
    r86         cover       3.0                       c1_86_14    1.0
    r86         c2_86       1.0
    r87         cover       1.0                       c1_87_8     1.0
    r87         c1_87_12    1.0                       c1_87_13    1.0
    r87         c1_87_15    1.0                       c1_87_17    1.0
    r87         c2_87       1.0
    r88         cover       3.0                       c1_88_14    1.0
    r88         c1_88_16    1.0                       c2_88       1.0
    r89         cover       4.0                       c1_89_0     1.0
    r89         c1_89_2     1.0                       c1_89_3     1.0
    r89         c1_89_6     1.0                       c1_89_9     1.0
    r89         c1_89_11    1.0                       c1_89_18    1.0
    r89         c2_89       1.0
    r90         cover       5.0                       c1_90_0     1.0
    r90         c1_90_3     1.0                       c1_90_6     1.0
    r90         c1_90_9     1.0                       c1_90_11    1.0
    r90         c1_90_18    1.0                       c2_90       1.0
    r91         cover       4.0                       c1_91_2     1.0
    r91         c1_91_3     1.0                       c1_91_8     1.0
    r91         c1_91_11    1.0                       c1_91_12    1.0
    r91         c1_91_13    1.0                       c1_91_15    1.0
    r91         c2_91       1.0
    r92         cover       3.0                       c1_92_3     1.0
    r92         c1_92_8     1.0                       c1_92_13    1.0
    r92         c1_92_15    1.0                       c2_92       1.0
    r93         cover       3.0                       c1_93_14    1.0
    r93         c2_93       1.0
    r94         cover       2.0                       c1_94_5     1.0
    r94         c1_94_9     1.0                       c1_94_10    1.0
    r94         c1_94_19    1.0                       c2_94       1.0
    r95         cover       2.0                       c1_95_7     1.0
    r95         c2_95       1.0
    r96         cover       4.0                       c2_96       1.0
    r97         cover       2.0                       c1_97_12    1.0
    r97         c2_97       1.0
    r98         cover       2.0                       c1_98_1     1.0
    r98         c1_98_2     1.0                       c1_98_14    1.0
    r98         c1_98_16    1.0                       c2_98       1.0
    r99         cover       4.0                       c1_99_2     1.0
    r99         c1_99_12    1.0                       c1_99_15    1.0
    r99         c1_99_16    1.0                       c1_99_17    1.0
    r99         c2_99       1.0
    r100        cover       2.0                       c2_100      1.0
    r101        cover       4.0                       c2_101      1.0
    r102        cover       1.0                       c1_102_1    1.0
    r102        c1_102_4    1.0                       c1_102_5    1.0
    r102        c1_102_14   1.0                       c1_102_18   1.0
    r102        c2_102      1.0
    r103        cover       4.0                       c1_103_14   1.0
    r103        c2_103      1.0
    r104        cover       2.0                       c1_104_12   1.0
    r104        c1_104_17   1.0                       c2_104      1.0
    r105        cover       5.0                       c1_105_3    1.0
    r105        c1_105_6    1.0                       c1_105_11   1.0
    r105        c1_105_13   1.0                       c1_105_15   1.0
    r105        c2_105      1.0
    r106        cover       5.0                       c1_106_0    1.0
    r106        c1_106_1    1.0                       c1_106_5    1.0
    r106        c1_106_6    1.0                       c1_106_9    1.0
    r106        c1_106_10   1.0                       c1_106_18   1.0
    r106        c1_106_19   1.0                       c2_106      1.0
    r107        cover       4.0                       c2_107      1.0
    r108        cover       5.0                       c1_108_0    1.0
    r108        c1_108_1    1.0                       c1_108_2    1.0
    r108        c1_108_5    1.0                       c1_108_11   1.0
    r108        c1_108_14   1.0                       c1_108_16   1.0
    r108        c1_108_18   1.0                       c2_108      1.0
    r109        cover       5.0                       c1_109_4    1.0
    r109        c2_109      1.0
    r110        cover       2.0                       c1_110_7    1.0
    r110        c2_110      1.0
    r111        cover       1.0                       c1_111_8    1.0
    r111        c1_111_13   1.0                       c2_111      1.0
    r112        cover       1.0                       c1_112_0    1.0
    r112        c1_112_1    1.0                       c1_112_3    1.0
    r112        c1_112_6    1.0                       c1_112_9    1.0
    r112        c1_112_11   1.0                       c1_112_18   1.0
    r112        c2_112      1.0
    r113        cover       2.0                       c1_113_2    1.0
    r113        c1_113_11   1.0                       c1_113_12   1.0
    r113        c1_113_15   1.0                       c1_113_16   1.0
    r113        c1_113_17   1.0                       c2_113      1.0
    r114        cover       1.0                       c1_114_12   1.0
    r114        c1_114_17   1.0                       c2_114      1.0
    r115        cover       4.0                       c1_115_9    1.0
    r115        c1_115_10   1.0                       c1_115_19   1.0
    r115        c2_115      1.0
    r116        cover       1.0                       c1_116_3    1.0
    r116        c1_116_6    1.0                       c1_116_11   1.0
    r116        c1_116_13   1.0                       c1_116_15   1.0
    r116        c2_116      1.0
    r117        cover       5.0                       c1_117_3    1.0
    r117        c1_117_8    1.0                       c1_117_13   1.0
    r117        c1_117_15   1.0                       c2_117      1.0
    r118        cover       2.0                       c1_118_9    1.0
    r118        c1_118_10   1.0                       c1_118_19   1.0
    r118        c2_118      1.0
    r119        cover       3.0                       c1_119_0    1.0
    r119        c1_119_3    1.0                       c1_119_6    1.0
    r119        c1_119_9    1.0                       c1_119_11   1.0
    r119        c1_119_18   1.0                       c2_119      1.0
    r120        cover       5.0                       c1_120_2    1.0
    r120        c1_120_3    1.0                       c1_120_11   1.0
    r120        c1_120_13   1.0                       c1_120_15   1.0
    r120        c2_120      1.0
    r121        cover       5.0                       c2_121      1.0
    r122        cover       4.0                       c2_122      1.0
    r123        cover       3.0                       c1_123_4    1.0
    r123        c1_123_5    1.0                       c1_123_19   1.0
    r123        c2_123      1.0
    r124        cover       4.0                       c1_124_0    1.0
    r124        c1_124_1    1.0                       c1_124_2    1.0
    r124        c1_124_3    1.0                       c1_124_11   1.0
    r124        c1_124_14   1.0                       c1_124_16   1.0
    r124        c1_124_18   1.0                       c2_124      1.0
    r125        cover       2.0                       c2_125      1.0
    r126        cover       3.0                       c1_126_4    1.0
    r126        c2_126      1.0
    r127        cover       2.0                       c1_127_14   1.0
    r127        c2_127      1.0
    r128        cover       1.0                       c1_128_8    1.0
    r128        c1_128_12   1.0                       c1_128_13   1.0
    r128        c1_128_15   1.0                       c1_128_17   1.0
    r128        c2_128      1.0
    r129        cover       5.0                       c1_129_9    1.0
    r129        c1_129_10   1.0                       c2_129      1.0
    r130        cover       1.0                       c1_130_9    1.0
    r130        c1_130_10   1.0                       c1_130_19   1.0
    r130        c2_130      1.0
    r131        cover       2.0                       c1_131_7    1.0
    r131        c2_131      1.0
    r132        cover       4.0                       c1_132_14   1.0
    r132        c2_132      1.0
    r133        cover       5.0                       c1_133_7    1.0
    r133        c2_133      1.0
    r134        cover       5.0                       c2_134      1.0
    r135        cover       3.0                       c2_135      1.0
    r136        cover       1.0                       c1_136_7    1.0
    r136        c2_136      1.0
    r137        cover       2.0                       c1_137_14   1.0
    r137        c2_137      1.0
    r138        cover       2.0                       c1_138_0    1.0
    r138        c1_138_1    1.0                       c1_138_2    1.0
    r138        c1_138_11   1.0                       c1_138_14   1.0
    r138        c1_138_16   1.0                       c1_138_18   1.0
    r138        c2_138      1.0
    r139        cover       2.0                       c1_139_5    1.0
    r139        c1_139_9    1.0                       c1_139_10   1.0
    r139        c1_139_19   1.0                       c2_139      1.0
    r140        cover       2.0                       c1_140_7    1.0
    r140        c2_140      1.0
    r141        cover       4.0                       c1_141_7    1.0
    r141        c2_141      1.0
    r142        cover       2.0                       c1_142_2    1.0
    r142        c1_142_12   1.0                       c1_142_14   1.0
    r142        c1_142_16   1.0                       c2_142      1.0
    r143        cover       4.0                       c1_143_0    1.0
    r143        c1_143_1    1.0                       c1_143_2    1.0
    r143        c1_143_5    1.0                       c1_143_6    1.0
    r143        c1_143_9    1.0                       c1_143_11   1.0
    r143        c1_143_16   1.0                       c1_143_18   1.0
    r143        c1_143_19   1.0                       c2_143      1.0
    r144        cover       4.0                       c1_144_14   1.0
    r144        c1_144_16   1.0                       c2_144      1.0
    r145        cover       3.0                       c1_145_8    1.0
    r145        c1_145_12   1.0                       c1_145_13   1.0
    r145        c1_145_15   1.0                       c1_145_17   1.0
    r145        c2_145      1.0
    r146        cover       3.0                       c1_146_8    1.0
    r146        c1_146_12   1.0                       c1_146_13   1.0
    r146        c1_146_15   1.0                       c1_146_17   1.0
    r146        c2_146      1.0
    r147        cover       1.0                       c1_147_0    1.0
    r147        c1_147_5    1.0                       c1_147_6    1.0
    r147        c1_147_9    1.0                       c1_147_10   1.0
    r147        c1_147_18   1.0                       c1_147_19   1.0
    r147        c2_147      1.0
    r148        cover       2.0                       c1_148_14   1.0
    r148        c2_148      1.0
    r149        cover       4.0                       c1_149_14   1.0
    r149        c2_149      1.0
    r150        cover       3.0                       c1_150_14   1.0
    r150        c2_150      1.0
    r151        cover       2.0                       c2_151      1.0
    r152        cover       3.0                       c2_152      1.0
    r153        cover       3.0                       c1_153_1    1.0
    r153        c1_153_14   1.0                       c2_153      1.0
    r154        cover       1.0                       c1_154_0    1.0
    r154        c1_154_3    1.0                       c1_154_6    1.0
    r154        c1_154_9    1.0                       c1_154_11   1.0
    r154        c2_154      1.0
    r155        cover       4.0                       c2_155      1.0
    r156        cover       4.0                       c1_156_0    1.0
    r156        c1_156_1    1.0                       c1_156_2    1.0
    r156        c1_156_14   1.0                       c1_156_16   1.0
    r156        c1_156_18   1.0                       c2_156      1.0
    r157        cover       3.0                       c1_157_0    1.0
    r157        c1_157_1    1.0                       c1_157_2    1.0
    r157        c1_157_3    1.0                       c1_157_6    1.0
    r157        c1_157_11   1.0                       c1_157_16   1.0
    r157        c1_157_18   1.0                       c2_157      1.0
    r158        cover       2.0                       c1_158_7    1.0
    r158        c2_158      1.0
    r159        cover       4.0                       c1_159_3    1.0
    r159        c1_159_6    1.0                       c1_159_11   1.0
    r159        c1_159_13   1.0                       c1_159_15   1.0
    r159        c2_159      1.0
    r160        cover       1.0                       c1_160_3    1.0
    r160        c1_160_8    1.0                       c1_160_13   1.0
    r160        c1_160_15   1.0                       c2_160      1.0
    r161        cover       4.0                       c1_161_0    1.0
    r161        c1_161_1    1.0                       c1_161_2    1.0
    r161        c1_161_5    1.0                       c1_161_14   1.0
    r161        c1_161_16   1.0                       c1_161_18   1.0
    r161        c2_161      1.0
    r162        cover       1.0                       c1_162_4    1.0
    r162        c1_162_5    1.0                       c1_162_19   1.0
    r162        c2_162      1.0
    r163        cover       2.0                       c1_163_1    1.0
    r163        c1_163_4    1.0                       c1_163_5    1.0
    r163        c1_163_14   1.0                       c1_163_18   1.0
    r163        c2_163      1.0
    r164        cover       3.0                       c1_164_5    1.0
    r164        c1_164_9    1.0                       c1_164_10   1.0
    r164        c1_164_19   1.0                       c2_164      1.0
    r165        cover       2.0                       c1_165_1    1.0
    r165        c1_165_5    1.0                       c1_165_14   1.0
    r165        c2_165      1.0
    r166        cover       2.0                       c1_166_0    1.0
    r166        c1_166_1    1.0                       c1_166_5    1.0
    r166        c1_166_9    1.0                       c1_166_18   1.0
    r166        c1_166_19   1.0                       c2_166      1.0
    r167        cover       1.0                       c1_167_7    1.0
    r167        c2_167      1.0
    r168        cover       2.0                       c1_168_6    1.0
    r168        c1_168_9    1.0                       c1_168_10   1.0
    r168        c2_168      1.0
    r169        cover       3.0                       c1_169_0    1.0
    r169        c1_169_1    1.0                       c1_169_2    1.0
    r169        c1_169_11   1.0                       c1_169_14   1.0
    r169        c1_169_15   1.0                       c1_169_16   1.0
    r169        c1_169_18   1.0                       c2_169      1.0
    r170        cover       4.0                       c1_170_4    1.0
    r170        c1_170_5    1.0                       c1_170_19   1.0
    r170        c2_170      1.0
    r171        cover       1.0                       c1_171_4    1.0
    r171        c1_171_5    1.0                       c1_171_10   1.0
    r171        c1_171_19   1.0                       c2_171      1.0
    r172        cover       1.0                       c1_172_6    1.0
    r172        c1_172_9    1.0                       c1_172_10   1.0
    r172        c1_172_19   1.0                       c2_172      1.0
    r173        cover       2.0                       c2_173      1.0
    r174        cover       2.0                       c1_174_1    1.0
    r174        c1_174_5    1.0                       c1_174_14   1.0
    r174        c1_174_16   1.0                       c1_174_18   1.0
    r174        c2_174      1.0
    r175        cover       2.0                       c1_175_12   1.0
    r175        c1_175_17   1.0                       c2_175      1.0
    r176        cover       5.0                       c1_176_2    1.0
    r176        c1_176_3    1.0                       c1_176_8    1.0
    r176        c1_176_11   1.0                       c1_176_12   1.0
    r176        c1_176_13   1.0                       c1_176_15   1.0
    r176        c2_176      1.0
    r177        cover       3.0                       c1_177_8    1.0
    r177        c1_177_13   1.0                       c2_177      1.0
    r178        cover       2.0                       c1_178_14   1.0
    r178        c1_178_16   1.0                       c2_178      1.0
    r179        cover       5.0                       c1_179_7    1.0
    r179        c2_179      1.0
    r180        cover       1.0                       c1_180_0    1.0
    r180        c1_180_3    1.0                       c1_180_6    1.0
    r180        c1_180_11   1.0                       c1_180_13   1.0
    r180        c1_180_15   1.0                       c2_180      1.0
    r181        cover       3.0                       c1_181_8    1.0
    r181        c1_181_13   1.0                       c1_181_15   1.0
    r181        c2_181      1.0
    r182        cover       5.0                       c1_182_4    1.0
    r182        c1_182_5    1.0                       c1_182_19   1.0
    r182        c2_182      1.0
    r183        cover       1.0                       c2_183      1.0
    r184        cover       4.0                       c2_184      1.0
    r185        cover       4.0                       c1_185_12   1.0
    r185        c1_185_17   1.0                       c2_185      1.0
    r186        cover       3.0                       c1_186_7    1.0
    r186        c2_186      1.0
    r187        cover       5.0                       c1_187_7    1.0
    r187        c2_187      1.0
    r188        cover       5.0                       c1_188_7    1.0
    r188        c2_188      1.0
    r189        cover       1.0                       c1_189_8    1.0
    r189        c1_189_12   1.0                       c1_189_15   1.0
    r189        c1_189_17   1.0                       c2_189      1.0
    r190        cover       4.0                       c1_190_9    1.0
    r190        c1_190_10   1.0                       c2_190      1.0
    r191        cover       4.0                       c2_191      1.0
    r192        cover       2.0                       c1_192_0    1.0
    r192        c1_192_1    1.0                       c1_192_2    1.0
    r192        c1_192_5    1.0                       c1_192_14   1.0
    r192        c1_192_16   1.0                       c1_192_18   1.0
    r192        c2_192      1.0
    r193        cover       5.0                       c2_193      1.0
    r194        cover       3.0                       c1_194_4    1.0
    r194        c1_194_5    1.0                       c2_194      1.0
    r195        cover       4.0                       c1_195_2    1.0
    r195        c1_195_11   1.0                       c1_195_12   1.0
    r195        c1_195_15   1.0                       c1_195_16   1.0
    r195        c1_195_17   1.0                       c2_195      1.0
    r196        cover       3.0                       c1_196_2    1.0
    r196        c1_196_11   1.0                       c1_196_12   1.0
    r196        c1_196_15   1.0                       c1_196_16   1.0
    r196        c1_196_17   1.0                       c2_196      1.0
    r197        cover       3.0                       c1_197_1    1.0
    r197        c1_197_2    1.0                       c1_197_14   1.0
    r197        c1_197_16   1.0                       c1_197_18   1.0
    r197        c2_197      1.0
    r198        cover       2.0                       c1_198_1    1.0
    r198        c1_198_14   1.0                       c2_198      1.0
    r199        cover       4.0                       c1_199_1    1.0
    r199        c1_199_4    1.0                       c1_199_5    1.0
    r199        c1_199_14   1.0                       c1_199_18   1.0
    r199        c2_199      1.0
    r200        cover       3.0                       c1_200_0    1.0
    r200        c1_200_2    1.0                       c1_200_3    1.0
    r200        c1_200_6    1.0                       c1_200_11   1.0
    r200        c1_200_13   1.0                       c1_200_15   1.0
    r200        c2_200      1.0
    r201        cover       4.0                       c2_201      1.0
    r202        cover       2.0                       c2_202      1.0
    r203        cover       1.0                       c1_203_6    1.0
    r203        c1_203_9    1.0                       c1_203_10   1.0
    r203        c2_203      1.0
    r204        cover       1.0                       c1_204_9    1.0
    r204        c1_204_10   1.0                       c1_204_19   1.0
    r204        c2_204      1.0
    r205        cover       1.0                       c1_205_3    1.0
    r205        c1_205_13   1.0                       c1_205_15   1.0
    r205        c2_205      1.0
    r206        cover       3.0                       c1_206_7    1.0
    r206        c2_206      1.0
    r207        cover       3.0                       c1_207_4    1.0
    r207        c2_207      1.0
    r208        cover       3.0                       c2_208      1.0
    r209        cover       4.0                       c1_209_0    1.0
    r209        c1_209_6    1.0                       c1_209_9    1.0
    r209        c1_209_10   1.0                       c2_209      1.0
    r210        cover       5.0                       c1_210_14   1.0
    r210        c1_210_16   1.0                       c2_210      1.0
    r211        cover       4.0                       c1_211_0    1.0
    r211        c1_211_2    1.0                       c1_211_3    1.0
    r211        c1_211_6    1.0                       c1_211_11   1.0
    r211        c1_211_15   1.0                       c1_211_16   1.0
    r211        c2_211      1.0
    r212        cover       1.0                       c1_212_7    1.0
    r212        c2_212      1.0
    r213        cover       5.0                       c1_213_14   1.0
    r213        c1_213_16   1.0                       c2_213      1.0
    r214        cover       2.0                       c1_214_4    1.0
    r214        c2_214      1.0
    r215        cover       5.0                       c1_215_0    1.0
    r215        c1_215_3    1.0                       c1_215_6    1.0
    r215        c1_215_11   1.0                       c2_215      1.0
    r216        cover       2.0                       c1_216_0    1.0
    r216        c1_216_3    1.0                       c1_216_6    1.0
    r216        c1_216_9    1.0                       c1_216_11   1.0
    r216        c1_216_18   1.0                       c2_216      1.0
    r217        cover       3.0                       c1_217_9    1.0
    r217        c1_217_10   1.0                       c1_217_19   1.0
    r217        c2_217      1.0
    r218        cover       1.0                       c1_218_6    1.0
    r218        c1_218_9    1.0                       c2_218      1.0
    r219        cover       3.0                       c1_219_4    1.0
    r219        c1_219_5    1.0                       c1_219_19   1.0
    r219        c2_219      1.0
    r220        cover       4.0                       c1_220_7    1.0
    r220        c2_220      1.0
    r221        cover       3.0                       c1_221_12   1.0
    r221        c1_221_17   1.0                       c2_221      1.0
    r222        cover       3.0                       c1_222_8    1.0
    r222        c1_222_12   1.0                       c1_222_15   1.0
    r222        c1_222_17   1.0                       c2_222      1.0
    r223        cover       5.0                       c1_223_0    1.0
    r223        c1_223_2    1.0                       c1_223_3    1.0
    r223        c1_223_6    1.0                       c1_223_11   1.0
    r223        c1_223_13   1.0                       c1_223_15   1.0
    r223        c2_223      1.0
    r224        cover       2.0                       c1_224_4    1.0
    r224        c1_224_5    1.0                       c1_224_10   1.0
    r224        c1_224_19   1.0                       c2_224      1.0
    r225        cover       1.0                       c1_225_2    1.0
    r225        c1_225_11   1.0                       c1_225_12   1.0
    r225        c1_225_15   1.0                       c1_225_16   1.0
    r225        c1_225_17   1.0                       c2_225      1.0
    r226        cover       3.0                       c1_226_4    1.0
    r226        c1_226_5    1.0                       c2_226      1.0
    r227        cover       3.0                       c1_227_14   1.0
    r227        c2_227      1.0
    r228        cover       2.0                       c1_228_1    1.0
    r228        c1_228_2    1.0                       c1_228_14   1.0
    r228        c1_228_16   1.0                       c1_228_18   1.0
    r228        c2_228      1.0
    r229        cover       4.0                       c1_229_2    1.0
    r229        c1_229_12   1.0                       c1_229_16   1.0
    r229        c1_229_17   1.0                       c2_229      1.0
    r230        cover       4.0                       c1_230_14   1.0
    r230        c1_230_16   1.0                       c2_230      1.0
    r231        cover       5.0                       c1_231_0    1.0
    r231        c1_231_1    1.0                       c1_231_2    1.0
    r231        c1_231_3    1.0                       c1_231_6    1.0
    r231        c1_231_11   1.0                       c1_231_15   1.0
    r231        c1_231_16   1.0                       c1_231_18   1.0
    r231        c2_231      1.0
    r232        cover       2.0                       c1_232_3    1.0
    r232        c1_232_6    1.0                       c1_232_11   1.0
    r232        c1_232_13   1.0                       c1_232_15   1.0
    r232        c2_232      1.0
    r233        cover       3.0                       c2_233      1.0
    r234        cover       4.0                       c1_234_2    1.0
    r234        c1_234_12   1.0                       c1_234_16   1.0
    r234        c2_234      1.0
    r235        cover       4.0                       c1_235_7    1.0
    r235        c2_235      1.0
    r236        cover       1.0                       c1_236_0    1.0
    r236        c1_236_1    1.0                       c1_236_5    1.0
    r236        c1_236_9    1.0                       c1_236_10   1.0
    r236        c1_236_18   1.0                       c1_236_19   1.0
    r236        c2_236      1.0
    r237        cover       1.0                       c1_237_0    1.0
    r237        c1_237_1    1.0                       c1_237_2    1.0
    r237        c1_237_3    1.0                       c1_237_5    1.0
    r237        c1_237_6    1.0                       c1_237_9    1.0
    r237        c1_237_11   1.0                       c1_237_16   1.0
    r237        c1_237_18   1.0                       c2_237      1.0
    r238        cover       5.0                       c2_238      1.0
    r239        cover       4.0                       c1_239_0    1.0
    r239        c1_239_3    1.0                       c1_239_6    1.0
    r239        c1_239_9    1.0                       c1_239_11   1.0
    r239        c2_239      1.0
    r240        cover       4.0                       c1_240_14   1.0
    r240        c2_240      1.0
    r241        cover       2.0                       c1_241_8    1.0
    r241        c1_241_12   1.0                       c1_241_13   1.0
    r241        c1_241_15   1.0                       c1_241_17   1.0
    r241        c2_241      1.0
    r242        cover       1.0                       c1_242_17   1.0
    r242        c2_242      1.0
    r243        cover       1.0                       c1_243_0    1.0
    r243        c1_243_3    1.0                       c1_243_6    1.0
    r243        c1_243_9    1.0                       c1_243_11   1.0
    r243        c2_243      1.0
    r244        cover       4.0                       c1_244_12   1.0
    r244        c1_244_17   1.0                       c2_244      1.0
    r245        cover       5.0                       c1_245_7    1.0
    r245        c2_245      1.0
    r246        cover       4.0                       c1_246_1    1.0
    r246        c1_246_14   1.0                       c2_246      1.0
    r247        cover       3.0                       c1_247_7    1.0
    r247        c2_247      1.0
    r248        cover       1.0                       c1_248_0    1.0
    r248        c1_248_1    1.0                       c1_248_2    1.0
    r248        c1_248_3    1.0                       c1_248_6    1.0
    r248        c1_248_9    1.0                       c1_248_11   1.0
    r248        c1_248_16   1.0                       c1_248_18   1.0
    r248        c2_248      1.0
    r249        cover       1.0                       c1_249_0    1.0
    r249        c1_249_3    1.0                       c1_249_6    1.0
    r249        c1_249_9    1.0                       c2_249      1.0
    r250        cover       2.0                       c1_250_8    1.0
    r250        c1_250_12   1.0                       c1_250_17   1.0
    r250        c2_250      1.0
    r251        cover       5.0                       c1_251_0    1.0
    r251        c1_251_1    1.0                       c1_251_2    1.0
    r251        c1_251_5    1.0                       c1_251_11   1.0
    r251        c1_251_14   1.0                       c1_251_16   1.0
    r251        c1_251_18   1.0                       c2_251      1.0
    r252        cover       2.0                       c2_252      1.0
    r253        cover       1.0                       c1_253_0    1.0
    r253        c1_253_6    1.0                       c1_253_9    1.0
    r253        c1_253_11   1.0                       c1_253_18   1.0
    r253        c2_253      1.0
    r254        cover       5.0                       c1_254_1    1.0
    r254        c1_254_14   1.0                       c1_254_16   1.0
    r254        c2_254      1.0
    r255        cover       4.0                       c2_255      1.0
    r256        cover       4.0                       c1_256_0    1.0
    r256        c1_256_1    1.0                       c1_256_2    1.0
    r256        c1_256_11   1.0                       c1_256_14   1.0
    r256        c1_256_16   1.0                       c1_256_18   1.0
    r256        c2_256      1.0
    r257        cover       5.0                       c2_257      1.0
    r258        cover       3.0                       c1_258_12   1.0
    r258        c2_258      1.0
    r259        cover       4.0                       c1_259_0    1.0
    r259        c1_259_3    1.0                       c1_259_6    1.0
    r259        c1_259_9    1.0                       c1_259_11   1.0
    r259        c2_259      1.0
    r260        cover       2.0                       c2_260      1.0
    r261        cover       4.0                       c1_261_9    1.0
    r261        c1_261_10   1.0                       c1_261_19   1.0
    r261        c2_261      1.0
    r262        cover       4.0                       c1_262_0    1.0
    r262        c1_262_3    1.0                       c1_262_6    1.0
    r262        c1_262_11   1.0                       c2_262      1.0
    r263        cover       3.0                       c1_263_0    1.0
    r263        c1_263_3    1.0                       c1_263_6    1.0
    r263        c1_263_9    1.0                       c1_263_11   1.0
    r263        c2_263      1.0
    r264        cover       4.0                       c1_264_6    1.0
    r264        c1_264_9    1.0                       c1_264_10   1.0
    r264        c2_264      1.0
    r265        cover       2.0                       c2_265      1.0
    r266        cover       2.0                       c1_266_12   1.0
    r266        c2_266      1.0
    r267        cover       2.0                       c1_267_4    1.0
    r267        c2_267      1.0
    r268        cover       1.0                       c1_268_8    1.0
    r268        c1_268_12   1.0                       c1_268_13   1.0
    r268        c1_268_15   1.0                       c2_268      1.0
    r269        cover       4.0                       c1_269_0    1.0
    r269        c1_269_2    1.0                       c1_269_3    1.0
    r269        c1_269_6    1.0                       c1_269_11   1.0
    r269        c1_269_15   1.0                       c2_269      1.0
    r270        cover       4.0                       c1_270_2    1.0
    r270        c1_270_8    1.0                       c1_270_12   1.0
    r270        c1_270_15   1.0                       c1_270_17   1.0
    r270        c2_270      1.0
    r271        cover       5.0                       c2_271      1.0
    r272        cover       3.0                       c1_272_14   1.0
    r272        c2_272      1.0
    r273        cover       1.0                       c1_273_7    1.0
    r273        c2_273      1.0
    r274        cover       4.0                       c1_274_8    1.0
    r274        c1_274_13   1.0                       c1_274_15   1.0
    r274        c2_274      1.0
    r275        cover       2.0                       c1_275_0    1.0
    r275        c1_275_6    1.0                       c1_275_9    1.0
    r275        c1_275_10   1.0                       c2_275      1.0
    r276        cover       1.0                       c1_276_0    1.0
    r276        c1_276_1    1.0                       c1_276_5    1.0
    r276        c1_276_14   1.0                       c1_276_16   1.0
    r276        c1_276_18   1.0                       c2_276      1.0
    r277        cover       1.0                       c1_277_3    1.0
    r277        c1_277_13   1.0                       c1_277_15   1.0
    r277        c2_277      1.0
    r278        cover       2.0                       c1_278_1    1.0
    r278        c1_278_2    1.0                       c1_278_14   1.0
    r278        c1_278_16   1.0                       c2_278      1.0
    r279        cover       5.0                       c1_279_3    1.0
    r279        c1_279_6    1.0                       c1_279_11   1.0
    r279        c1_279_13   1.0                       c1_279_15   1.0
    r279        c2_279      1.0
    r280        cover       4.0                       c1_280_7    1.0
    r280        c2_280      1.0
    r281        cover       3.0                       c2_281      1.0
    r282        cover       5.0                       c1_282_0    1.0
    r282        c1_282_1    1.0                       c1_282_2    1.0
    r282        c1_282_5    1.0                       c1_282_14   1.0
    r282        c1_282_16   1.0                       c1_282_18   1.0
    r282        c2_282      1.0
    r283        cover       3.0                       c1_283_7    1.0
    r283        c2_283      1.0
    r284        cover       3.0                       c1_284_1    1.0
    r284        c1_284_14   1.0                       c1_284_16   1.0
    r284        c2_284      1.0
    r285        cover       4.0                       c1_285_1    1.0
    r285        c1_285_14   1.0                       c1_285_16   1.0
    r285        c2_285      1.0
    r286        cover       1.0                       c1_286_4    1.0
    r286        c2_286      1.0
    r287        cover       2.0                       c1_287_7    1.0
    r287        c2_287      1.0
    r288        cover       3.0                       c1_288_0    1.0
    r288        c1_288_1    1.0                       c1_288_2    1.0
    r288        c1_288_5    1.0                       c1_288_11   1.0
    r288        c1_288_14   1.0                       c1_288_16   1.0
    r288        c1_288_18   1.0                       c2_288      1.0
    r289        cover       5.0                       c1_289_3    1.0
    r289        c1_289_6    1.0                       c1_289_11   1.0
    r289        c1_289_13   1.0                       c1_289_15   1.0
    r289        c2_289      1.0
    r290        cover       4.0                       c1_290_0    1.0
    r290        c1_290_2    1.0                       c1_290_3    1.0
    r290        c1_290_11   1.0                       c1_290_12   1.0
    r290        c1_290_15   1.0                       c1_290_16   1.0
    r290        c2_290      1.0
    r291        cover       4.0                       c1_291_0    1.0
    r291        c1_291_3    1.0                       c1_291_6    1.0
    r291        c1_291_9    1.0                       c1_291_11   1.0
    r291        c1_291_18   1.0                       c2_291      1.0
    r292        cover       5.0                       c1_292_9    1.0
    r292        c1_292_10   1.0                       c1_292_19   1.0
    r292        c2_292      1.0
    r293        cover       3.0                       c1_293_0    1.0
    r293        c1_293_1    1.0                       c1_293_5    1.0
    r293        c1_293_9    1.0                       c1_293_10   1.0
    r293        c1_293_18   1.0                       c1_293_19   1.0
    r293        c2_293      1.0
    r294        cover       3.0                       c2_294      1.0
    r295        cover       3.0                       c1_295_7    1.0
    r295        c2_295      1.0
    r296        cover       5.0                       c1_296_0    1.0
    r296        c1_296_1    1.0                       c1_296_2    1.0
    r296        c1_296_11   1.0                       c1_296_14   1.0
    r296        c1_296_16   1.0                       c1_296_18   1.0
    r296        c2_296      1.0
    r297        cover       3.0                       c1_297_6    1.0
    r297        c1_297_9    1.0                       c1_297_10   1.0
    r297        c2_297      1.0
    r298        cover       5.0                       c1_298_7    1.0
    r298        c2_298      1.0
    r299        cover       4.0                       c1_299_0    1.0
    r299        c1_299_1    1.0                       c1_299_2    1.0
    r299        c1_299_3    1.0                       c1_299_6    1.0
    r299        c1_299_9    1.0                       c1_299_11   1.0
    r299        c1_299_16   1.0                       c1_299_18   1.0
    r299        c2_299      1.0
    r300        cover       5.0                       c1_300_9    1.0
    r300        c1_300_10   1.0                       c2_300      1.0
    r301        cover       2.0                       c1_301_4    1.0
    r301        c1_301_5    1.0                       c2_301      1.0
    r302        cover       1.0                       c2_302      1.0
    r303        cover       1.0                       c1_303_0    1.0
    r303        c1_303_1    1.0                       c1_303_2    1.0
    r303        c1_303_5    1.0                       c1_303_9    1.0
    r303        c1_303_11   1.0                       c1_303_16   1.0
    r303        c1_303_18   1.0                       c1_303_19   1.0
    r303        c2_303      1.0
    r304        cover       2.0                       c2_304      1.0
    r305        cover       5.0                       c1_305_0    1.0
    r305        c1_305_1    1.0                       c1_305_2    1.0
    r305        c1_305_11   1.0                       c1_305_14   1.0
    r305        c1_305_16   1.0                       c1_305_18   1.0
    r305        c2_305      1.0
    r306        cover       1.0                       c1_306_7    1.0
    r306        c2_306      1.0
    r307        cover       2.0                       c2_307      1.0
    r308        cover       3.0                       c2_308      1.0
    r309        cover       2.0                       c1_309_3    1.0
    r309        c1_309_6    1.0                       c1_309_11   1.0
    r309        c2_309      1.0
    r310        cover       1.0                       c1_310_0    1.0
    r310        c1_310_2    1.0                       c1_310_3    1.0
    r310        c1_310_6    1.0                       c1_310_11   1.0
    r310        c1_310_15   1.0                       c2_310      1.0
    r311        cover       5.0                       c1_311_7    1.0
    r311        c2_311      1.0
    r312        cover       5.0                       c1_312_1    1.0
    r312        c1_312_2    1.0                       c1_312_14   1.0
    r312        c1_312_16   1.0                       c2_312      1.0
    r313        cover       5.0                       c1_313_1    1.0
    r313        c1_313_5    1.0                       c1_313_14   1.0
    r313        c2_313      1.0
    r314        cover       1.0                       c1_314_0    1.0
    r314        c1_314_1    1.0                       c1_314_5    1.0
    r314        c1_314_9    1.0                       c1_314_18   1.0
    r314        c1_314_19   1.0                       c2_314      1.0
    r315        cover       3.0                       c1_315_1    1.0
    r315        c1_315_2    1.0                       c1_315_14   1.0
    r315        c1_315_16   1.0                       c2_315      1.0
    r316        cover       5.0                       c2_316      1.0
    r317        cover       4.0                       c1_317_1    1.0
    r317        c1_317_5    1.0                       c1_317_9    1.0
    r317        c1_317_10   1.0                       c1_317_18   1.0
    r317        c1_317_19   1.0                       c2_317      1.0
    r318        cover       3.0                       c1_318_0    1.0
    r318        c1_318_1    1.0                       c1_318_5    1.0
    r318        c1_318_14   1.0                       c1_318_18   1.0
    r318        c1_318_19   1.0                       c2_318      1.0
    r319        cover       2.0                       c1_319_12   1.0
    r319        c1_319_17   1.0                       c2_319      1.0
    r320        cover       4.0                       c1_320_14   1.0
    r320        c1_320_16   1.0                       c2_320      1.0
    r321        cover       3.0                       c1_321_8    1.0
    r321        c1_321_12   1.0                       c1_321_13   1.0
    r321        c1_321_15   1.0                       c1_321_17   1.0
    r321        c2_321      1.0
    r322        cover       1.0                       c1_322_8    1.0
    r322        c1_322_12   1.0                       c1_322_15   1.0
    r322        c1_322_17   1.0                       c2_322      1.0
    r323        cover       4.0                       c1_323_0    1.0
    r323        c1_323_1    1.0                       c1_323_5    1.0
    r323        c1_323_9    1.0                       c1_323_16   1.0
    r323        c1_323_18   1.0                       c1_323_19   1.0
    r323        c2_323      1.0
    r324        cover       3.0                       c2_324      1.0
    r325        cover       3.0                       c2_325      1.0
    r326        cover       3.0                       c1_326_1    1.0
    r326        c1_326_2    1.0                       c1_326_14   1.0
    r326        c1_326_16   1.0                       c1_326_18   1.0
    r326        c2_326      1.0
    r327        cover       3.0                       c1_327_1    1.0
    r327        c1_327_14   1.0                       c1_327_16   1.0
    r327        c2_327      1.0
    r328        cover       5.0                       c1_328_7    1.0
    r328        c2_328      1.0
    r329        cover       4.0                       c1_329_0    1.0
    r329        c1_329_2    1.0                       c1_329_3    1.0
    r329        c1_329_6    1.0                       c1_329_9    1.0
    r329        c1_329_11   1.0                       c1_329_15   1.0
    r329        c1_329_18   1.0                       c2_329      1.0
    r330        cover       3.0                       c1_330_14   1.0
    r330        c2_330      1.0
    r331        cover       2.0                       c1_331_7    1.0
    r331        c2_331      1.0
    r332        cover       3.0                       c1_332_7    1.0
    r332        c2_332      1.0
    r333        cover       5.0                       c1_333_7    1.0
    r333        c2_333      1.0
    r334        cover       4.0                       c1_334_8    1.0
    r334        c1_334_12   1.0                       c1_334_13   1.0
    r334        c1_334_15   1.0                       c1_334_17   1.0
    r334        c2_334      1.0
    r335        cover       4.0                       c1_335_12   1.0
    r335        c1_335_15   1.0                       c1_335_17   1.0
    r335        c2_335      1.0
    r336        cover       3.0                       c1_336_1    1.0
    r336        c1_336_4    1.0                       c1_336_5    1.0
    r336        c1_336_14   1.0                       c1_336_18   1.0
    r336        c2_336      1.0
    r337        cover       3.0                       c1_337_7    1.0
    r337        c2_337      1.0
    r338        cover       2.0                       c1_338_0    1.0
    r338        c1_338_1    1.0                       c1_338_2    1.0
    r338        c1_338_11   1.0                       c1_338_14   1.0
    r338        c1_338_16   1.0                       c1_338_18   1.0
    r338        c2_338      1.0
    r339        cover       4.0                       c1_339_0    1.0
    r339        c1_339_2    1.0                       c1_339_3    1.0
    r339        c1_339_6    1.0                       c1_339_11   1.0
    r339        c1_339_13   1.0                       c1_339_15   1.0
    r339        c1_339_16   1.0                       c2_339      1.0
    r340        cover       4.0                       c1_340_6    1.0
    r340        c1_340_9    1.0                       c1_340_10   1.0
    r340        c2_340      1.0
    r341        cover       4.0                       c1_341_8    1.0
    r341        c1_341_13   1.0                       c1_341_15   1.0
    r341        c2_341      1.0
    r342        cover       1.0                       c1_342_0    1.0
    r342        c1_342_2    1.0                       c1_342_3    1.0
    r342        c1_342_6    1.0                       c1_342_11   1.0
    r342        c1_342_13   1.0                       c1_342_15   1.0
    r342        c2_342      1.0
    r343        cover       4.0                       c1_343_6    1.0
    r343        c1_343_9    1.0                       c2_343      1.0
    r344        cover       4.0                       c1_344_1    1.0
    r344        c1_344_4    1.0                       c1_344_5    1.0
    r344        c1_344_14   1.0                       c2_344      1.0
    r345        cover       2.0                       c1_345_1    1.0
    r345        c1_345_14   1.0                       c1_345_16   1.0
    r345        c1_345_18   1.0                       c2_345      1.0
    r346        cover       2.0                       c1_346_14   1.0
    r346        c2_346      1.0
    r347        cover       5.0                       c1_347_0    1.0
    r347        c1_347_1    1.0                       c1_347_2    1.0
    r347        c1_347_3    1.0                       c1_347_6    1.0
    r347        c1_347_11   1.0                       c1_347_15   1.0
    r347        c1_347_16   1.0                       c1_347_18   1.0
    r347        c2_347      1.0
    r348        cover       2.0                       c1_348_2    1.0
    r348        c1_348_12   1.0                       c1_348_15   1.0
    r348        c1_348_16   1.0                       c2_348      1.0
    r349        cover       4.0                       c1_349_7    1.0
    r349        c2_349      1.0
    r350        cover       4.0                       c1_350_8    1.0
    r350        c1_350_13   1.0                       c2_350      1.0
    r351        cover       4.0                       c1_351_7    1.0
    r351        c2_351      1.0
    r352        cover       2.0                       c2_352      1.0
    r353        cover       3.0                       c1_353_5    1.0
    r353        c1_353_9    1.0                       c1_353_10   1.0
    r353        c1_353_19   1.0                       c2_353      1.0
    r354        cover       1.0                       c1_354_4    1.0
    r354        c1_354_5    1.0                       c1_354_19   1.0
    r354        c2_354      1.0
    r355        cover       5.0                       c1_355_2    1.0
    r355        c1_355_12   1.0                       c1_355_14   1.0
    r355        c1_355_15   1.0                       c1_355_16   1.0
    r355        c2_355      1.0
    r356        cover       3.0                       c1_356_4    1.0
    r356        c1_356_5    1.0                       c1_356_19   1.0
    r356        c2_356      1.0
    r357        cover       1.0                       c1_357_3    1.0
    r357        c1_357_8    1.0                       c1_357_11   1.0
    r357        c1_357_13   1.0                       c1_357_15   1.0
    r357        c2_357      1.0
    r358        cover       2.0                       c2_358      1.0
    r359        cover       5.0                       c2_359      1.0
    r360        cover       5.0                       c1_360_4    1.0
    r360        c1_360_5    1.0                       c1_360_19   1.0
    r360        c2_360      1.0
    r361        cover       2.0                       c1_361_1    1.0
    r361        c1_361_14   1.0                       c1_361_16   1.0
    r361        c2_361      1.0
    r362        cover       3.0                       c1_362_9    1.0
    r362        c1_362_10   1.0                       c2_362      1.0
    r363        cover       1.0                       c1_363_4    1.0
    r363        c1_363_5    1.0                       c2_363      1.0
    r364        cover       4.0                       c1_364_9    1.0
    r364        c1_364_10   1.0                       c1_364_19   1.0
    r364        c2_364      1.0
    r365        cover       4.0                       c1_365_14   1.0
    r365        c2_365      1.0
    r366        cover       1.0                       c1_366_7    1.0
    r366        c2_366      1.0
    r367        cover       4.0                       c1_367_4    1.0
    r367        c2_367      1.0
    r368        cover       3.0                       c1_368_0    1.0
    r368        c1_368_1    1.0                       c1_368_2    1.0
    r368        c1_368_14   1.0                       c1_368_16   1.0
    r368        c1_368_18   1.0                       c2_368      1.0
    r369        cover       2.0                       c1_369_0    1.0
    r369        c1_369_6    1.0                       c1_369_9    1.0
    r369        c1_369_10   1.0                       c1_369_19   1.0
    r369        c2_369      1.0
    r370        cover       4.0                       c1_370_12   1.0
    r370        c1_370_17   1.0                       c2_370      1.0
    r371        cover       2.0                       c1_371_9    1.0
    r371        c1_371_10   1.0                       c1_371_19   1.0
    r371        c2_371      1.0
    r372        cover       4.0                       c1_372_7    1.0
    r372        c2_372      1.0
    r373        cover       4.0                       c1_373_7    1.0
    r373        c2_373      1.0
    r374        cover       5.0                       c2_374      1.0
    r375        cover       4.0                       c1_375_14   1.0
    r375        c2_375      1.0
    r376        cover       5.0                       c2_376      1.0
    r377        cover       1.0                       c1_377_9    1.0
    r377        c1_377_10   1.0                       c1_377_19   1.0
    r377        c2_377      1.0
    r378        cover       4.0                       c1_378_14   1.0
    r378        c2_378      1.0
    r379        cover       4.0                       c1_379_2    1.0
    r379        c1_379_12   1.0                       c1_379_16   1.0
    r379        c2_379      1.0
    r380        cover       4.0                       c1_380_8    1.0
    r380        c1_380_12   1.0                       c1_380_15   1.0
    r380        c1_380_17   1.0                       c2_380      1.0
    r381        cover       5.0                       c1_381_1    1.0
    r381        c1_381_14   1.0                       c1_381_16   1.0
    r381        c2_381      1.0
    r382        cover       4.0                       c1_382_0    1.0
    r382        c1_382_1    1.0                       c1_382_5    1.0
    r382        c1_382_9    1.0                       c1_382_10   1.0
    r382        c1_382_18   1.0                       c1_382_19   1.0
    r382        c2_382      1.0
    r383        cover       3.0                       c1_383_4    1.0
    r383        c1_383_5    1.0                       c2_383      1.0
    r384        cover       1.0                       c1_384_5    1.0
    r384        c1_384_9    1.0                       c1_384_10   1.0
    r384        c1_384_19   1.0                       c2_384      1.0
    r385        cover       2.0                       c1_385_0    1.0
    r385        c1_385_1    1.0                       c1_385_2    1.0
    r385        c1_385_11   1.0                       c1_385_12   1.0
    r385        c1_385_14   1.0                       c1_385_15   1.0
    r385        c1_385_16   1.0                       c1_385_18   1.0
    r385        c2_385      1.0
    r386        cover       2.0                       c1_386_2    1.0
    r386        c1_386_3    1.0                       c1_386_11   1.0
    r386        c1_386_13   1.0                       c1_386_15   1.0
    r386        c2_386      1.0
    r387        cover       5.0                       c1_387_7    1.0
    r387        c2_387      1.0
    r388        cover       1.0                       c1_388_12   1.0
    r388        c2_388      1.0
    r389        cover       1.0                       c1_389_1    1.0
    r389        c1_389_4    1.0                       c1_389_5    1.0
    r389        c1_389_14   1.0                       c1_389_18   1.0
    r389        c1_389_19   1.0                       c2_389      1.0
    r390        cover       2.0                       c2_390      1.0
    r391        cover       5.0                       c2_391      1.0
    r392        cover       3.0                       c1_392_3    1.0
    r392        c1_392_8    1.0                       c1_392_13   1.0
    r392        c1_392_15   1.0                       c2_392      1.0
    r393        cover       1.0                       c1_393_3    1.0
    r393        c1_393_8    1.0                       c1_393_11   1.0
    r393        c1_393_12   1.0                       c1_393_13   1.0
    r393        c1_393_15   1.0                       c2_393      1.0
    r394        cover       2.0                       c2_394      1.0
    r395        cover       3.0                       c2_395      1.0
    r396        cover       3.0                       c1_396_0    1.0
    r396        c1_396_1    1.0                       c1_396_5    1.0
    r396        c1_396_9    1.0                       c1_396_18   1.0
    r396        c1_396_19   1.0                       c2_396      1.0
    r397        cover       3.0                       c1_397_1    1.0
    r397        c1_397_4    1.0                       c1_397_5    1.0
    r397        c1_397_18   1.0                       c1_397_19   1.0
    r397        c2_397      1.0
    r398        cover       4.0                       c2_398      1.0
    r399        cover       3.0                       c1_399_0    1.0
    r399        c1_399_2    1.0                       c1_399_3    1.0
    r399        c1_399_11   1.0                       c1_399_12   1.0
    r399        c1_399_15   1.0                       c1_399_16   1.0
    r399        c2_399      1.0
    r400        cover       3.0                       c1_400_14   1.0
    r400        c2_400      1.0
    r401        cover       2.0                       c1_401_8    1.0
    r401        c1_401_12   1.0                       c1_401_13   1.0
    r401        c1_401_15   1.0                       c1_401_17   1.0
    r401        c2_401      1.0
    r402        cover       5.0                       c1_402_0    1.0
    r402        c1_402_2    1.0                       c1_402_3    1.0
    r402        c1_402_6    1.0                       c1_402_11   1.0
    r402        c1_402_15   1.0                       c2_402      1.0
    r403        cover       4.0                       c1_403_1    1.0
    r403        c1_403_4    1.0                       c1_403_5    1.0
    r403        c1_403_14   1.0                       c1_403_18   1.0
    r403        c2_403      1.0
    r404        cover       2.0                       c1_404_0    1.0
    r404        c1_404_1    1.0                       c1_404_2    1.0
    r404        c1_404_14   1.0                       c1_404_16   1.0
    r404        c1_404_18   1.0                       c2_404      1.0
    r405        cover       2.0                       c1_405_5    1.0
    r405        c1_405_9    1.0                       c1_405_10   1.0
    r405        c1_405_19   1.0                       c2_405      1.0
    r406        cover       3.0                       c1_406_8    1.0
    r406        c1_406_12   1.0                       c1_406_17   1.0
    r406        c2_406      1.0
    r407        cover       4.0                       c1_407_5    1.0
    r407        c1_407_9    1.0                       c1_407_10   1.0
    r407        c1_407_19   1.0                       c2_407      1.0
    r408        cover       5.0                       c1_408_12   1.0
    r408        c1_408_17   1.0                       c2_408      1.0
    r409        cover       5.0                       c2_409      1.0
    r410        cover       2.0                       c1_410_9    1.0
    r410        c1_410_10   1.0                       c1_410_19   1.0
    r410        c2_410      1.0
    r411        cover       4.0                       c1_411_14   1.0
    r411        c2_411      1.0
    r412        cover       2.0                       c1_412_0    1.0
    r412        c1_412_3    1.0                       c1_412_6    1.0
    r412        c1_412_9    1.0                       c1_412_11   1.0
    r412        c2_412      1.0
    r413        cover       2.0                       c1_413_7    1.0
    r413        c2_413      1.0
    r414        cover       5.0                       c1_414_4    1.0
    r414        c1_414_5    1.0                       c1_414_19   1.0
    r414        c2_414      1.0
    r415        cover       5.0                       c1_415_4    1.0
    r415        c2_415      1.0
    r416        cover       2.0                       c1_416_1    1.0
    r416        c1_416_14   1.0                       c1_416_16   1.0
    r416        c2_416      1.0
    r417        cover       5.0                       c1_417_2    1.0
    r417        c1_417_14   1.0                       c1_417_16   1.0
    r417        c2_417      1.0
    r418        cover       5.0                       c1_418_1    1.0
    r418        c1_418_14   1.0                       c1_418_16   1.0
    r418        c2_418      1.0
    r419        cover       3.0                       c1_419_5    1.0
    r419        c1_419_9    1.0                       c1_419_10   1.0
    r419        c1_419_19   1.0                       c2_419      1.0
    r420        cover       3.0                       c1_420_4    1.0
    r420        c1_420_5    1.0                       c1_420_14   1.0
    r420        c2_420      1.0
    r421        cover       1.0                       c1_421_0    1.0
    r421        c1_421_1    1.0                       c1_421_2    1.0
    r421        c1_421_3    1.0                       c1_421_6    1.0
    r421        c1_421_9    1.0                       c1_421_11   1.0
    r421        c1_421_16   1.0                       c1_421_18   1.0
    r421        c2_421      1.0
    r422        cover       1.0                       c1_422_4    1.0
    r422        c1_422_5    1.0                       c2_422      1.0
    r423        cover       2.0                       c1_423_0    1.0
    r423        c1_423_1    1.0                       c1_423_5    1.0
    r423        c1_423_9    1.0                       c1_423_10   1.0
    r423        c1_423_18   1.0                       c1_423_19   1.0
    r423        c2_423      1.0
    r424        cover       2.0                       c1_424_8    1.0
    r424        c1_424_12   1.0                       c1_424_13   1.0
    r424        c1_424_15   1.0                       c2_424      1.0
    r425        cover       2.0                       c1_425_0    1.0
    r425        c1_425_1    1.0                       c1_425_2    1.0
    r425        c1_425_14   1.0                       c1_425_16   1.0
    r425        c1_425_18   1.0                       c2_425      1.0
    r426        cover       2.0                       c1_426_0    1.0
    r426        c1_426_1    1.0                       c1_426_2    1.0
    r426        c1_426_11   1.0                       c1_426_14   1.0
    r426        c1_426_16   1.0                       c1_426_18   1.0
    r426        c2_426      1.0
    r427        cover       5.0                       c1_427_0    1.0
    r427        c1_427_1    1.0                       c1_427_2    1.0
    r427        c1_427_5    1.0                       c1_427_14   1.0
    r427        c1_427_16   1.0                       c1_427_18   1.0
    r427        c2_427      1.0
    r428        cover       1.0                       c1_428_4    1.0
    r428        c1_428_5    1.0                       c1_428_9    1.0
    r428        c1_428_10   1.0                       c1_428_18   1.0
    r428        c1_428_19   1.0                       c2_428      1.0
    r429        cover       2.0                       c1_429_1    1.0
    r429        c1_429_2    1.0                       c1_429_14   1.0
    r429        c1_429_16   1.0                       c2_429      1.0
    r430        cover       3.0                       c1_430_4    1.0
    r430        c1_430_5    1.0                       c2_430      1.0
    r431        cover       5.0                       c1_431_7    1.0
    r431        c2_431      1.0
    r432        cover       1.0                       c1_432_9    1.0
    r432        c1_432_10   1.0                       c1_432_19   1.0
    r432        c2_432      1.0
    r433        cover       5.0                       c1_433_7    1.0
    r433        c2_433      1.0
    r434        cover       4.0                       c1_434_7    1.0
    r434        c2_434      1.0
    r435        cover       2.0                       c2_435      1.0
    r436        cover       3.0                       c2_436      1.0
    r437        cover       1.0                       c1_437_1    1.0
    r437        c1_437_4    1.0                       c1_437_5    1.0
    r437        c1_437_10   1.0                       c1_437_18   1.0
    r437        c1_437_19   1.0                       c2_437      1.0
    r438        cover       5.0                       c1_438_14   1.0
    r438        c1_438_16   1.0                       c2_438      1.0
    r439        cover       1.0                       c1_439_4    1.0
    r439        c1_439_5    1.0                       c1_439_14   1.0
    r439        c2_439      1.0
    r440        cover       4.0                       c1_440_0    1.0
    r440        c1_440_1    1.0                       c1_440_5    1.0
    r440        c1_440_14   1.0                       c1_440_16   1.0
    r440        c1_440_18   1.0                       c2_440      1.0
    r441        cover       3.0                       c1_441_0    1.0
    r441        c1_441_2    1.0                       c1_441_3    1.0
    r441        c1_441_6    1.0                       c1_441_11   1.0
    r441        c1_441_15   1.0                       c2_441      1.0
    r442        cover       5.0                       c1_442_0    1.0
    r442        c1_442_2    1.0                       c1_442_3    1.0
    r442        c1_442_6    1.0                       c1_442_9    1.0
    r442        c1_442_11   1.0                       c1_442_18   1.0
    r442        c2_442      1.0
    r443        cover       4.0                       c2_443      1.0
    r444        cover       3.0                       c1_444_4    1.0
    r444        c2_444      1.0
    r445        cover       2.0                       c2_445      1.0
    r446        cover       1.0                       c1_446_7    1.0
    r446        c2_446      1.0
    r447        cover       4.0                       c1_447_0    1.0
    r447        c1_447_2    1.0                       c1_447_3    1.0
    r447        c1_447_6    1.0                       c1_447_11   1.0
    r447        c1_447_15   1.0                       c1_447_16   1.0
    r447        c1_447_18   1.0                       c2_447      1.0
    r448        cover       1.0                       c1_448_7    1.0
    r448        c2_448      1.0
    r449        cover       1.0                       c1_449_0    1.0
    r449        c1_449_2    1.0                       c1_449_3    1.0
    r449        c1_449_6    1.0                       c1_449_11   1.0
    r449        c1_449_13   1.0                       c1_449_15   1.0
    r449        c2_449      1.0
    r450        cover       4.0                       c1_450_7    1.0
    r450        c2_450      1.0
    r451        cover       4.0                       c1_451_8    1.0
    r451        c1_451_12   1.0                       c1_451_13   1.0
    r451        c1_451_15   1.0                       c1_451_17   1.0
    r451        c2_451      1.0
    r452        cover       5.0                       c1_452_14   1.0
    r452        c1_452_16   1.0                       c2_452      1.0
    r453        cover       3.0                       c1_453_1    1.0
    r453        c1_453_4    1.0                       c1_453_5    1.0
    r453        c1_453_14   1.0                       c2_453      1.0
    r454        cover       2.0                       c1_454_0    1.0
    r454        c1_454_6    1.0                       c1_454_9    1.0
    r454        c1_454_10   1.0                       c1_454_18   1.0
    r454        c1_454_19   1.0                       c2_454      1.0
    r455        cover       3.0                       c1_455_3    1.0
    r455        c1_455_8    1.0                       c1_455_13   1.0
    r455        c1_455_15   1.0                       c2_455      1.0
    r456        cover       2.0                       c1_456_7    1.0
    r456        c2_456      1.0
    r457        cover       2.0                       c2_457      1.0
    r458        cover       5.0                       c1_458_0    1.0
    r458        c1_458_1    1.0                       c1_458_2    1.0
    r458        c1_458_11   1.0                       c1_458_14   1.0
    r458        c1_458_16   1.0                       c1_458_18   1.0
    r458        c2_458      1.0
    r459        cover       3.0                       c1_459_9    1.0
    r459        c1_459_10   1.0                       c1_459_19   1.0
    r459        c2_459      1.0
    r460        cover       4.0                       c1_460_2    1.0
    r460        c1_460_12   1.0                       c1_460_15   1.0
    r460        c1_460_16   1.0                       c1_460_17   1.0
    r460        c2_460      1.0
    r461        cover       1.0                       c1_461_12   1.0
    r461        c1_461_17   1.0                       c2_461      1.0
    r462        cover       5.0                       c1_462_14   1.0
    r462        c2_462      1.0
    r463        cover       5.0                       c1_463_0    1.0
    r463        c1_463_1    1.0                       c1_463_2    1.0
    r463        c1_463_3    1.0                       c1_463_6    1.0
    r463        c1_463_11   1.0                       c1_463_15   1.0
    r463        c1_463_16   1.0                       c1_463_18   1.0
    r463        c2_463      1.0
    r464        cover       5.0                       c1_464_8    1.0
    r464        c1_464_12   1.0                       c1_464_13   1.0
    r464        c1_464_15   1.0                       c1_464_17   1.0
    r464        c2_464      1.0
    r465        cover       4.0                       c2_465      1.0
    r466        cover       1.0                       c1_466_4    1.0
    r466        c1_466_5    1.0                       c1_466_19   1.0
    r466        c2_466      1.0
    r467        cover       2.0                       c1_467_4    1.0
    r467        c2_467      1.0
    r468        cover       4.0                       c1_468_1    1.0
    r468        c1_468_14   1.0                       c2_468      1.0
    r469        cover       3.0                       c1_469_2    1.0
    r469        c1_469_11   1.0                       c1_469_12   1.0
    r469        c1_469_15   1.0                       c1_469_16   1.0
    r469        c2_469      1.0
    r470        cover       3.0                       c1_470_9    1.0
    r470        c1_470_10   1.0                       c1_470_19   1.0
    r470        c2_470      1.0
    r471        cover       4.0                       c1_471_0    1.0
    r471        c1_471_1    1.0                       c1_471_5    1.0
    r471        c1_471_14   1.0                       c1_471_18   1.0
    r471        c1_471_19   1.0                       c2_471      1.0
    r472        cover       5.0                       c1_472_4    1.0
    r472        c1_472_5    1.0                       c1_472_19   1.0
    r472        c2_472      1.0
    r473        cover       4.0                       c1_473_9    1.0
    r473        c1_473_10   1.0                       c1_473_19   1.0
    r473        c2_473      1.0
    r474        cover       1.0                       c1_474_2    1.0
    r474        c1_474_3    1.0                       c1_474_8    1.0
    r474        c1_474_11   1.0                       c1_474_12   1.0
    r474        c1_474_13   1.0                       c1_474_15   1.0
    r474        c1_474_17   1.0                       c2_474      1.0
    r475        cover       2.0                       c1_475_7    1.0
    r475        c2_475      1.0
    r476        cover       2.0                       c1_476_2    1.0
    r476        c1_476_12   1.0                       c1_476_16   1.0
    r476        c1_476_17   1.0                       c2_476      1.0
    r477        cover       2.0                       c2_477      1.0
    r478        cover       2.0                       c1_478_0    1.0
    r478        c1_478_3    1.0                       c1_478_6    1.0
    r478        c1_478_11   1.0                       c2_478      1.0
    r479        cover       5.0                       c1_479_2    1.0
    r479        c1_479_8    1.0                       c1_479_11   1.0
    r479        c1_479_12   1.0                       c1_479_15   1.0
    r479        c1_479_16   1.0                       c1_479_17   1.0
    r479        c2_479      1.0
    r480        cover       3.0                       c2_480      1.0
    r481        cover       3.0                       c1_481_0    1.0
    r481        c1_481_1    1.0                       c1_481_2    1.0
    r481        c1_481_3    1.0                       c1_481_6    1.0
    r481        c1_481_11   1.0                       c1_481_15   1.0
    r481        c1_481_16   1.0                       c1_481_18   1.0
    r481        c2_481      1.0
    r482        cover       4.0                       c1_482_8    1.0
    r482        c1_482_12   1.0                       c1_482_13   1.0
    r482        c1_482_15   1.0                       c1_482_17   1.0
    r482        c2_482      1.0
    r483        cover       2.0                       c2_483      1.0
    r484        cover       3.0                       c1_484_3    1.0
    r484        c1_484_8    1.0                       c1_484_13   1.0
    r484        c1_484_15   1.0                       c2_484      1.0
    r485        cover       1.0                       c2_485      1.0
    r486        cover       4.0                       c1_486_2    1.0
    r486        c1_486_12   1.0                       c1_486_14   1.0
    r486        c1_486_16   1.0                       c2_486      1.0
    r487        cover       5.0                       c1_487_12   1.0
    r487        c1_487_17   1.0                       c2_487      1.0
    r488        cover       3.0                       c1_488_14   1.0
    r488        c2_488      1.0
    r489        cover       2.0                       c1_489_0    1.0
    r489        c1_489_1    1.0                       c1_489_2    1.0
    r489        c1_489_3    1.0                       c1_489_6    1.0
    r489        c1_489_9    1.0                       c1_489_11   1.0
    r489        c1_489_16   1.0                       c1_489_18   1.0
    r489        c2_489      1.0
    r490        cover       5.0                       c1_490_2    1.0
    r490        c1_490_12   1.0                       c1_490_15   1.0
    r490        c1_490_16   1.0                       c1_490_17   1.0
    r490        c2_490      1.0
    r491        cover       1.0                       c1_491_0    1.0
    r491        c1_491_3    1.0                       c1_491_6    1.0
    r491        c1_491_9    1.0                       c1_491_11   1.0
    r491        c2_491      1.0
    r492        cover       1.0                       c1_492_0    1.0
    r492        c1_492_6    1.0                       c1_492_9    1.0
    r492        c1_492_10   1.0                       c1_492_19   1.0
    r492        c2_492      1.0
    r493        cover       1.0                       c1_493_14   1.0
    r493        c2_493      1.0
    r494        cover       5.0                       c1_494_4    1.0
    r494        c2_494      1.0
    r495        cover       3.0                       c2_495      1.0
    r496        cover       3.0                       c1_496_9    1.0
    r496        c1_496_10   1.0                       c2_496      1.0
    r497        cover       2.0                       c1_497_1    1.0
    r497        c1_497_4    1.0                       c1_497_5    1.0
    r497        c1_497_14   1.0                       c2_497      1.0
    r498        cover       5.0                       c1_498_7    1.0
    r498        c2_498      1.0
    r499        cover       3.0                       c1_499_12   1.0
    r499        c1_499_17   1.0                       c2_499      1.0
RHS
    rhs         cover       408.9788687531142
    rhs         c1_0_1      1.0
    rhs         c1_0_2      1.0
    rhs         c1_0_14     1.0
    rhs         c1_0_16     1.0
    rhs         c1_2_0      1.0
    rhs         c1_2_1      1.0
    rhs         c1_2_2      1.0
    rhs         c1_2_5      1.0
    rhs         c1_2_9      1.0
    rhs         c1_2_11     1.0
    rhs         c1_2_16     1.0
    rhs         c1_2_18     1.0
    rhs         c1_3_7      1.0
    rhs         c1_4_14     1.0
    rhs         c1_4_16     1.0
    rhs         c1_5_1      1.0
    rhs         c1_5_2      1.0
    rhs         c1_5_5      1.0
    rhs         c1_5_14     1.0
    rhs         c1_5_16     1.0
    rhs         c1_5_18     1.0
    rhs         c1_7_7      1.0
    rhs         c1_8_14     1.0
    rhs         c1_9_14     1.0
    rhs         c1_10_7     1.0
    rhs         c1_15_4     1.0
    rhs         c1_15_5     1.0
    rhs         c1_15_19    1.0
    rhs         c1_16_4     1.0
    rhs         c1_16_5     1.0
    rhs         c1_16_10    1.0
    rhs         c1_16_19    1.0
    rhs         c1_18_7     1.0
    rhs         c1_19_7     1.0
    rhs         c1_20_2     1.0
    rhs         c1_20_14    1.0
    rhs         c1_20_16    1.0
    rhs         c1_21_8     1.0
    rhs         c1_21_12    1.0
    rhs         c1_21_13    1.0
    rhs         c1_21_15    1.0
    rhs         c1_21_17    1.0
    rhs         c1_22_14    1.0
    rhs         c1_24_0     1.0
    rhs         c1_24_3     1.0
    rhs         c1_24_6     1.0
    rhs         c1_24_9     1.0
    rhs         c1_24_11    1.0
    rhs         c1_25_0     1.0
    rhs         c1_25_2     1.0
    rhs         c1_25_3     1.0
    rhs         c1_25_11    1.0
    rhs         c1_25_12    1.0
    rhs         c1_25_15    1.0
    rhs         c1_25_16    1.0
    rhs         c1_26_8     1.0
    rhs         c1_26_12    1.0
    rhs         c1_26_13    1.0
    rhs         c1_26_15    1.0
    rhs         c1_26_17    1.0
    rhs         c1_27_7     1.0
    rhs         c1_30_14    1.0
    rhs         c1_31_6     1.0
    rhs         c1_31_9     1.0
    rhs         c1_32_2     1.0
    rhs         c1_32_12    1.0
    rhs         c1_32_15    1.0
    rhs         c1_32_16    1.0
    rhs         c1_32_17    1.0
    rhs         c1_33_0     1.0
    rhs         c1_33_1     1.0
    rhs         c1_33_2     1.0
    rhs         c1_33_5     1.0
    rhs         c1_33_11    1.0
    rhs         c1_33_14    1.0
    rhs         c1_33_16    1.0
    rhs         c1_33_18    1.0
    rhs         c1_34_3     1.0
    rhs         c1_34_8     1.0
    rhs         c1_34_13    1.0
    rhs         c1_34_15    1.0
    rhs         c1_35_0     1.0
    rhs         c1_35_2     1.0
    rhs         c1_35_3     1.0
    rhs         c1_35_6     1.0
    rhs         c1_35_11    1.0
    rhs         c1_35_15    1.0
    rhs         c1_36_1     1.0
    rhs         c1_36_5     1.0
    rhs         c1_36_14    1.0
    rhs         c1_37_1     1.0
    rhs         c1_37_4     1.0
    rhs         c1_37_5     1.0
    rhs         c1_38_4     1.0
    rhs         c1_38_5     1.0
    rhs         c1_38_10    1.0
    rhs         c1_38_19    1.0
    rhs         c1_39_5     1.0
    rhs         c1_39_9     1.0
    rhs         c1_39_10    1.0
    rhs         c1_39_19    1.0
    rhs         c1_40_1     1.0
    rhs         c1_40_4     1.0
    rhs         c1_40_5     1.0
    rhs         c1_40_14    1.0
    rhs         c1_40_18    1.0
    rhs         c1_41_4     1.0
    rhs         c1_41_5     1.0
    rhs         c1_41_10    1.0
    rhs         c1_41_19    1.0
    rhs         c1_42_0     1.0
    rhs         c1_42_1     1.0
    rhs         c1_42_2     1.0
    rhs         c1_42_11    1.0
    rhs         c1_42_14    1.0
    rhs         c1_42_15    1.0
    rhs         c1_42_16    1.0
    rhs         c1_42_18    1.0
    rhs         c1_43_7     1.0
    rhs         c1_44_1     1.0
    rhs         c1_44_14    1.0
    rhs         c1_45_1     1.0
    rhs         c1_45_5     1.0
    rhs         c1_45_14    1.0
    rhs         c1_45_16    1.0
    rhs         c1_45_18    1.0
    rhs         c1_46_7     1.0
    rhs         c1_47_0     1.0
    rhs         c1_47_1     1.0
    rhs         c1_47_2     1.0
    rhs         c1_47_5     1.0
    rhs         c1_47_11    1.0
    rhs         c1_47_14    1.0
    rhs         c1_47_16    1.0
    rhs         c1_47_18    1.0
    rhs         c1_48_0     1.0
    rhs         c1_48_1     1.0
    rhs         c1_48_2     1.0
    rhs         c1_48_5     1.0
    rhs         c1_48_11    1.0
    rhs         c1_48_14    1.0
    rhs         c1_48_16    1.0
    rhs         c1_48_18    1.0
    rhs         c1_49_1     1.0
    rhs         c1_49_5     1.0
    rhs         c1_49_14    1.0
    rhs         c1_49_16    1.0
    rhs         c1_49_18    1.0
    rhs         c1_50_4     1.0
    rhs         c1_50_5     1.0
    rhs         c1_51_0     1.0
    rhs         c1_51_2     1.0
    rhs         c1_51_3     1.0
    rhs         c1_51_6     1.0
    rhs         c1_51_11    1.0
    rhs         c1_51_15    1.0
    rhs         c1_52_0     1.0
    rhs         c1_52_1     1.0
    rhs         c1_52_5     1.0
    rhs         c1_52_9     1.0
    rhs         c1_52_10    1.0
    rhs         c1_52_18    1.0
    rhs         c1_52_19    1.0
    rhs         c1_53_8     1.0
    rhs         c1_53_13    1.0
    rhs         c1_53_15    1.0
    rhs         c1_54_6     1.0
    rhs         c1_54_9     1.0
    rhs         c1_55_8     1.0
    rhs         c1_55_12    1.0
    rhs         c1_55_13    1.0
    rhs         c1_55_15    1.0
    rhs         c1_56_2     1.0
    rhs         c1_56_8     1.0
    rhs         c1_56_12    1.0
    rhs         c1_56_15    1.0
    rhs         c1_56_17    1.0
    rhs         c1_57_8     1.0
    rhs         c1_57_12    1.0
    rhs         c1_57_13    1.0
    rhs         c1_57_15    1.0
    rhs         c1_57_17    1.0
    rhs         c1_58_1     1.0
    rhs         c1_58_4     1.0
    rhs         c1_58_5     1.0
    rhs         c1_58_18    1.0
    rhs         c1_58_19    1.0
    rhs         c1_60_1     1.0
    rhs         c1_60_5     1.0
    rhs         c1_60_14    1.0
    rhs         c1_60_18    1.0
    rhs         c1_61_0     1.0
    rhs         c1_61_6     1.0
    rhs         c1_61_9     1.0
    rhs         c1_61_10    1.0
    rhs         c1_62_9     1.0
    rhs         c1_62_10    1.0
    rhs         c1_62_19    1.0
    rhs         c1_63_17    1.0
    rhs         c1_66_7     1.0
    rhs         c1_67_4     1.0
    rhs         c1_68_3     1.0
    rhs         c1_68_6     1.0
    rhs         c1_68_11    1.0
    rhs         c1_68_13    1.0
    rhs         c1_68_15    1.0
    rhs         c1_70_2     1.0
    rhs         c1_70_8     1.0
    rhs         c1_70_12    1.0
    rhs         c1_70_15    1.0
    rhs         c1_70_17    1.0
    rhs         c1_71_14    1.0
    rhs         c1_72_4     1.0
    rhs         c1_72_5     1.0
    rhs         c1_72_10    1.0
    rhs         c1_72_19    1.0
    rhs         c1_73_0     1.0
    rhs         c1_73_1     1.0
    rhs         c1_73_2     1.0
    rhs         c1_73_5     1.0
    rhs         c1_73_11    1.0
    rhs         c1_73_14    1.0
    rhs         c1_73_16    1.0
    rhs         c1_73_18    1.0
    rhs         c1_74_1     1.0
    rhs         c1_74_4     1.0
    rhs         c1_74_5     1.0
    rhs         c1_74_14    1.0
    rhs         c1_75_14    1.0
    rhs         c1_76_3     1.0
    rhs         c1_76_8     1.0
    rhs         c1_76_13    1.0
    rhs         c1_76_15    1.0
    rhs         c1_77_1     1.0
    rhs         c1_77_4     1.0
    rhs         c1_77_5     1.0
    rhs         c1_77_14    1.0
    rhs         c1_77_18    1.0
    rhs         c1_78_7     1.0
    rhs         c1_79_12    1.0
    rhs         c1_79_17    1.0
    rhs         c1_80_0     1.0
    rhs         c1_80_2     1.0
    rhs         c1_80_3     1.0
    rhs         c1_80_11    1.0
    rhs         c1_80_12    1.0
    rhs         c1_80_15    1.0
    rhs         c1_80_16    1.0
    rhs         c1_82_7     1.0
    rhs         c1_83_1     1.0
    rhs         c1_83_5     1.0
    rhs         c1_83_14    1.0
    rhs         c1_83_16    1.0
    rhs         c1_83_18    1.0
    rhs         c1_84_0     1.0
    rhs         c1_84_3     1.0
    rhs         c1_84_6     1.0
    rhs         c1_84_9     1.0
    rhs         c1_84_11    1.0
    rhs         c1_85_4     1.0
    rhs         c1_86_14    1.0
    rhs         c1_87_8     1.0
    rhs         c1_87_12    1.0
    rhs         c1_87_13    1.0
    rhs         c1_87_15    1.0
    rhs         c1_87_17    1.0
    rhs         c1_88_14    1.0
    rhs         c1_88_16    1.0
    rhs         c1_89_0     1.0
    rhs         c1_89_2     1.0
    rhs         c1_89_3     1.0
    rhs         c1_89_6     1.0
    rhs         c1_89_9     1.0
    rhs         c1_89_11    1.0
    rhs         c1_89_18    1.0
    rhs         c1_90_0     1.0
    rhs         c1_90_3     1.0
    rhs         c1_90_6     1.0
    rhs         c1_90_9     1.0
    rhs         c1_90_11    1.0
    rhs         c1_90_18    1.0
    rhs         c1_91_2     1.0
    rhs         c1_91_3     1.0
    rhs         c1_91_8     1.0
    rhs         c1_91_11    1.0
    rhs         c1_91_12    1.0
    rhs         c1_91_13    1.0
    rhs         c1_91_15    1.0
    rhs         c1_92_3     1.0
    rhs         c1_92_8     1.0
    rhs         c1_92_13    1.0
    rhs         c1_92_15    1.0
    rhs         c1_93_14    1.0
    rhs         c1_94_5     1.0
    rhs         c1_94_9     1.0
    rhs         c1_94_10    1.0
    rhs         c1_94_19    1.0
    rhs         c1_95_7     1.0
    rhs         c1_97_12    1.0
    rhs         c1_98_1     1.0
    rhs         c1_98_2     1.0
    rhs         c1_98_14    1.0
    rhs         c1_98_16    1.0
    rhs         c1_99_2     1.0
    rhs         c1_99_12    1.0
    rhs         c1_99_15    1.0
    rhs         c1_99_16    1.0
    rhs         c1_99_17    1.0
    rhs         c1_102_1    1.0
    rhs         c1_102_4    1.0
    rhs         c1_102_5    1.0
    rhs         c1_102_14   1.0
    rhs         c1_102_18   1.0
    rhs         c1_103_14   1.0
    rhs         c1_104_12   1.0
    rhs         c1_104_17   1.0
    rhs         c1_105_3    1.0
    rhs         c1_105_6    1.0
    rhs         c1_105_11   1.0
    rhs         c1_105_13   1.0
    rhs         c1_105_15   1.0
    rhs         c1_106_0    1.0
    rhs         c1_106_1    1.0
    rhs         c1_106_5    1.0
    rhs         c1_106_6    1.0
    rhs         c1_106_9    1.0
    rhs         c1_106_10   1.0
    rhs         c1_106_18   1.0
    rhs         c1_106_19   1.0
    rhs         c1_108_0    1.0
    rhs         c1_108_1    1.0
    rhs         c1_108_2    1.0
    rhs         c1_108_5    1.0
    rhs         c1_108_11   1.0
    rhs         c1_108_14   1.0
    rhs         c1_108_16   1.0
    rhs         c1_108_18   1.0
    rhs         c1_109_4    1.0
    rhs         c1_110_7    1.0
    rhs         c1_111_8    1.0
    rhs         c1_111_13   1.0
    rhs         c1_112_0    1.0
    rhs         c1_112_1    1.0
    rhs         c1_112_3    1.0
    rhs         c1_112_6    1.0
    rhs         c1_112_9    1.0
    rhs         c1_112_11   1.0
    rhs         c1_112_18   1.0
    rhs         c1_113_2    1.0
    rhs         c1_113_11   1.0
    rhs         c1_113_12   1.0
    rhs         c1_113_15   1.0
    rhs         c1_113_16   1.0
    rhs         c1_113_17   1.0
    rhs         c1_114_12   1.0
    rhs         c1_114_17   1.0
    rhs         c1_115_9    1.0
    rhs         c1_115_10   1.0
    rhs         c1_115_19   1.0
    rhs         c1_116_3    1.0
    rhs         c1_116_6    1.0
    rhs         c1_116_11   1.0
    rhs         c1_116_13   1.0
    rhs         c1_116_15   1.0
    rhs         c1_117_3    1.0
    rhs         c1_117_8    1.0
    rhs         c1_117_13   1.0
    rhs         c1_117_15   1.0
    rhs         c1_118_9    1.0
    rhs         c1_118_10   1.0
    rhs         c1_118_19   1.0
    rhs         c1_119_0    1.0
    rhs         c1_119_3    1.0
    rhs         c1_119_6    1.0
    rhs         c1_119_9    1.0
    rhs         c1_119_11   1.0
    rhs         c1_119_18   1.0
    rhs         c1_120_2    1.0
    rhs         c1_120_3    1.0
    rhs         c1_120_11   1.0
    rhs         c1_120_13   1.0
    rhs         c1_120_15   1.0
    rhs         c1_123_4    1.0
    rhs         c1_123_5    1.0
    rhs         c1_123_19   1.0
    rhs         c1_124_0    1.0
    rhs         c1_124_1    1.0
    rhs         c1_124_2    1.0
    rhs         c1_124_3    1.0
    rhs         c1_124_11   1.0
    rhs         c1_124_14   1.0
    rhs         c1_124_16   1.0
    rhs         c1_124_18   1.0
    rhs         c1_126_4    1.0
    rhs         c1_127_14   1.0
    rhs         c1_128_8    1.0
    rhs         c1_128_12   1.0
    rhs         c1_128_13   1.0
    rhs         c1_128_15   1.0
    rhs         c1_128_17   1.0
    rhs         c1_129_9    1.0
    rhs         c1_129_10   1.0
    rhs         c1_130_9    1.0
    rhs         c1_130_10   1.0
    rhs         c1_130_19   1.0
    rhs         c1_131_7    1.0
    rhs         c1_132_14   1.0
    rhs         c1_133_7    1.0
    rhs         c1_136_7    1.0
    rhs         c1_137_14   1.0
    rhs         c1_138_0    1.0
    rhs         c1_138_1    1.0
    rhs         c1_138_2    1.0
    rhs         c1_138_11   1.0
    rhs         c1_138_14   1.0
    rhs         c1_138_16   1.0
    rhs         c1_138_18   1.0
    rhs         c1_139_5    1.0
    rhs         c1_139_9    1.0
    rhs         c1_139_10   1.0
    rhs         c1_139_19   1.0
    rhs         c1_140_7    1.0
    rhs         c1_141_7    1.0
    rhs         c1_142_2    1.0
    rhs         c1_142_12   1.0
    rhs         c1_142_14   1.0
    rhs         c1_142_16   1.0
    rhs         c1_143_0    1.0
    rhs         c1_143_1    1.0
    rhs         c1_143_2    1.0
    rhs         c1_143_5    1.0
    rhs         c1_143_6    1.0
    rhs         c1_143_9    1.0
    rhs         c1_143_11   1.0
    rhs         c1_143_16   1.0
    rhs         c1_143_18   1.0
    rhs         c1_143_19   1.0
    rhs         c1_144_14   1.0
    rhs         c1_144_16   1.0
    rhs         c1_145_8    1.0
    rhs         c1_145_12   1.0
    rhs         c1_145_13   1.0
    rhs         c1_145_15   1.0
    rhs         c1_145_17   1.0
    rhs         c1_146_8    1.0
    rhs         c1_146_12   1.0
    rhs         c1_146_13   1.0
    rhs         c1_146_15   1.0
    rhs         c1_146_17   1.0
    rhs         c1_147_0    1.0
    rhs         c1_147_5    1.0
    rhs         c1_147_6    1.0
    rhs         c1_147_9    1.0
    rhs         c1_147_10   1.0
    rhs         c1_147_18   1.0
    rhs         c1_147_19   1.0
    rhs         c1_148_14   1.0
    rhs         c1_149_14   1.0
    rhs         c1_150_14   1.0
    rhs         c1_153_1    1.0
    rhs         c1_153_14   1.0
    rhs         c1_154_0    1.0
    rhs         c1_154_3    1.0
    rhs         c1_154_6    1.0
    rhs         c1_154_9    1.0
    rhs         c1_154_11   1.0
    rhs         c1_156_0    1.0
    rhs         c1_156_1    1.0
    rhs         c1_156_2    1.0
    rhs         c1_156_14   1.0
    rhs         c1_156_16   1.0
    rhs         c1_156_18   1.0
    rhs         c1_157_0    1.0
    rhs         c1_157_1    1.0
    rhs         c1_157_2    1.0
    rhs         c1_157_3    1.0
    rhs         c1_157_6    1.0
    rhs         c1_157_11   1.0
    rhs         c1_157_16   1.0
    rhs         c1_157_18   1.0
    rhs         c1_158_7    1.0
    rhs         c1_159_3    1.0
    rhs         c1_159_6    1.0
    rhs         c1_159_11   1.0
    rhs         c1_159_13   1.0
    rhs         c1_159_15   1.0
    rhs         c1_160_3    1.0
    rhs         c1_160_8    1.0
    rhs         c1_160_13   1.0
    rhs         c1_160_15   1.0
    rhs         c1_161_0    1.0
    rhs         c1_161_1    1.0
    rhs         c1_161_2    1.0
    rhs         c1_161_5    1.0
    rhs         c1_161_14   1.0
    rhs         c1_161_16   1.0
    rhs         c1_161_18   1.0
    rhs         c1_162_4    1.0
    rhs         c1_162_5    1.0
    rhs         c1_162_19   1.0
    rhs         c1_163_1    1.0
    rhs         c1_163_4    1.0
    rhs         c1_163_5    1.0
    rhs         c1_163_14   1.0
    rhs         c1_163_18   1.0
    rhs         c1_164_5    1.0
    rhs         c1_164_9    1.0
    rhs         c1_164_10   1.0
    rhs         c1_164_19   1.0
    rhs         c1_165_1    1.0
    rhs         c1_165_5    1.0
    rhs         c1_165_14   1.0
    rhs         c1_166_0    1.0
    rhs         c1_166_1    1.0
    rhs         c1_166_5    1.0
    rhs         c1_166_9    1.0
    rhs         c1_166_18   1.0
    rhs         c1_166_19   1.0
    rhs         c1_167_7    1.0
    rhs         c1_168_6    1.0
    rhs         c1_168_9    1.0
    rhs         c1_168_10   1.0
    rhs         c1_169_0    1.0
    rhs         c1_169_1    1.0
    rhs         c1_169_2    1.0
    rhs         c1_169_11   1.0
    rhs         c1_169_14   1.0
    rhs         c1_169_15   1.0
    rhs         c1_169_16   1.0
    rhs         c1_169_18   1.0
    rhs         c1_170_4    1.0
    rhs         c1_170_5    1.0
    rhs         c1_170_19   1.0
    rhs         c1_171_4    1.0
    rhs         c1_171_5    1.0
    rhs         c1_171_10   1.0
    rhs         c1_171_19   1.0
    rhs         c1_172_6    1.0
    rhs         c1_172_9    1.0
    rhs         c1_172_10   1.0
    rhs         c1_172_19   1.0
    rhs         c1_174_1    1.0
    rhs         c1_174_5    1.0
    rhs         c1_174_14   1.0
    rhs         c1_174_16   1.0
    rhs         c1_174_18   1.0
    rhs         c1_175_12   1.0
    rhs         c1_175_17   1.0
    rhs         c1_176_2    1.0
    rhs         c1_176_3    1.0
    rhs         c1_176_8    1.0
    rhs         c1_176_11   1.0
    rhs         c1_176_12   1.0
    rhs         c1_176_13   1.0
    rhs         c1_176_15   1.0
    rhs         c1_177_8    1.0
    rhs         c1_177_13   1.0
    rhs         c1_178_14   1.0
    rhs         c1_178_16   1.0
    rhs         c1_179_7    1.0
    rhs         c1_180_0    1.0
    rhs         c1_180_3    1.0
    rhs         c1_180_6    1.0
    rhs         c1_180_11   1.0
    rhs         c1_180_13   1.0
    rhs         c1_180_15   1.0
    rhs         c1_181_8    1.0
    rhs         c1_181_13   1.0
    rhs         c1_181_15   1.0
    rhs         c1_182_4    1.0
    rhs         c1_182_5    1.0
    rhs         c1_182_19   1.0
    rhs         c1_185_12   1.0
    rhs         c1_185_17   1.0
    rhs         c1_186_7    1.0
    rhs         c1_187_7    1.0
    rhs         c1_188_7    1.0
    rhs         c1_189_8    1.0
    rhs         c1_189_12   1.0
    rhs         c1_189_15   1.0
    rhs         c1_189_17   1.0
    rhs         c1_190_9    1.0
    rhs         c1_190_10   1.0
    rhs         c1_192_0    1.0
    rhs         c1_192_1    1.0
    rhs         c1_192_2    1.0
    rhs         c1_192_5    1.0
    rhs         c1_192_14   1.0
    rhs         c1_192_16   1.0
    rhs         c1_192_18   1.0
    rhs         c1_194_4    1.0
    rhs         c1_194_5    1.0
    rhs         c1_195_2    1.0
    rhs         c1_195_11   1.0
    rhs         c1_195_12   1.0
    rhs         c1_195_15   1.0
    rhs         c1_195_16   1.0
    rhs         c1_195_17   1.0
    rhs         c1_196_2    1.0
    rhs         c1_196_11   1.0
    rhs         c1_196_12   1.0
    rhs         c1_196_15   1.0
    rhs         c1_196_16   1.0
    rhs         c1_196_17   1.0
    rhs         c1_197_1    1.0
    rhs         c1_197_2    1.0
    rhs         c1_197_14   1.0
    rhs         c1_197_16   1.0
    rhs         c1_197_18   1.0
    rhs         c1_198_1    1.0
    rhs         c1_198_14   1.0
    rhs         c1_199_1    1.0
    rhs         c1_199_4    1.0
    rhs         c1_199_5    1.0
    rhs         c1_199_14   1.0
    rhs         c1_199_18   1.0
    rhs         c1_200_0    1.0
    rhs         c1_200_2    1.0
    rhs         c1_200_3    1.0
    rhs         c1_200_6    1.0
    rhs         c1_200_11   1.0
    rhs         c1_200_13   1.0
    rhs         c1_200_15   1.0
    rhs         c1_203_6    1.0
    rhs         c1_203_9    1.0
    rhs         c1_203_10   1.0
    rhs         c1_204_9    1.0
    rhs         c1_204_10   1.0
    rhs         c1_204_19   1.0
    rhs         c1_205_3    1.0
    rhs         c1_205_13   1.0
    rhs         c1_205_15   1.0
    rhs         c1_206_7    1.0
    rhs         c1_207_4    1.0
    rhs         c1_209_0    1.0
    rhs         c1_209_6    1.0
    rhs         c1_209_9    1.0
    rhs         c1_209_10   1.0
    rhs         c1_210_14   1.0
    rhs         c1_210_16   1.0
    rhs         c1_211_0    1.0
    rhs         c1_211_2    1.0
    rhs         c1_211_3    1.0
    rhs         c1_211_6    1.0
    rhs         c1_211_11   1.0
    rhs         c1_211_15   1.0
    rhs         c1_211_16   1.0
    rhs         c1_212_7    1.0
    rhs         c1_213_14   1.0
    rhs         c1_213_16   1.0
    rhs         c1_214_4    1.0
    rhs         c1_215_0    1.0
    rhs         c1_215_3    1.0
    rhs         c1_215_6    1.0
    rhs         c1_215_11   1.0
    rhs         c1_216_0    1.0
    rhs         c1_216_3    1.0
    rhs         c1_216_6    1.0
    rhs         c1_216_9    1.0
    rhs         c1_216_11   1.0
    rhs         c1_216_18   1.0
    rhs         c1_217_9    1.0
    rhs         c1_217_10   1.0
    rhs         c1_217_19   1.0
    rhs         c1_218_6    1.0
    rhs         c1_218_9    1.0
    rhs         c1_219_4    1.0
    rhs         c1_219_5    1.0
    rhs         c1_219_19   1.0
    rhs         c1_220_7    1.0
    rhs         c1_221_12   1.0
    rhs         c1_221_17   1.0
    rhs         c1_222_8    1.0
    rhs         c1_222_12   1.0
    rhs         c1_222_15   1.0
    rhs         c1_222_17   1.0
    rhs         c1_223_0    1.0
    rhs         c1_223_2    1.0
    rhs         c1_223_3    1.0
    rhs         c1_223_6    1.0
    rhs         c1_223_11   1.0
    rhs         c1_223_13   1.0
    rhs         c1_223_15   1.0
    rhs         c1_224_4    1.0
    rhs         c1_224_5    1.0
    rhs         c1_224_10   1.0
    rhs         c1_224_19   1.0
    rhs         c1_225_2    1.0
    rhs         c1_225_11   1.0
    rhs         c1_225_12   1.0
    rhs         c1_225_15   1.0
    rhs         c1_225_16   1.0
    rhs         c1_225_17   1.0
    rhs         c1_226_4    1.0
    rhs         c1_226_5    1.0
    rhs         c1_227_14   1.0
    rhs         c1_228_1    1.0
    rhs         c1_228_2    1.0
    rhs         c1_228_14   1.0
    rhs         c1_228_16   1.0
    rhs         c1_228_18   1.0
    rhs         c1_229_2    1.0
    rhs         c1_229_12   1.0
    rhs         c1_229_16   1.0
    rhs         c1_229_17   1.0
    rhs         c1_230_14   1.0
    rhs         c1_230_16   1.0
    rhs         c1_231_0    1.0
    rhs         c1_231_1    1.0
    rhs         c1_231_2    1.0
    rhs         c1_231_3    1.0
    rhs         c1_231_6    1.0
    rhs         c1_231_11   1.0
    rhs         c1_231_15   1.0
    rhs         c1_231_16   1.0
    rhs         c1_231_18   1.0
    rhs         c1_232_3    1.0
    rhs         c1_232_6    1.0
    rhs         c1_232_11   1.0
    rhs         c1_232_13   1.0
    rhs         c1_232_15   1.0
    rhs         c1_234_2    1.0
    rhs         c1_234_12   1.0
    rhs         c1_234_16   1.0
    rhs         c1_235_7    1.0
    rhs         c1_236_0    1.0
    rhs         c1_236_1    1.0
    rhs         c1_236_5    1.0
    rhs         c1_236_9    1.0
    rhs         c1_236_10   1.0
    rhs         c1_236_18   1.0
    rhs         c1_236_19   1.0
    rhs         c1_237_0    1.0
    rhs         c1_237_1    1.0
    rhs         c1_237_2    1.0
    rhs         c1_237_3    1.0
    rhs         c1_237_5    1.0
    rhs         c1_237_6    1.0
    rhs         c1_237_9    1.0
    rhs         c1_237_11   1.0
    rhs         c1_237_16   1.0
    rhs         c1_237_18   1.0
    rhs         c1_239_0    1.0
    rhs         c1_239_3    1.0
    rhs         c1_239_6    1.0
    rhs         c1_239_9    1.0
    rhs         c1_239_11   1.0
    rhs         c1_240_14   1.0
    rhs         c1_241_8    1.0
    rhs         c1_241_12   1.0
    rhs         c1_241_13   1.0
    rhs         c1_241_15   1.0
    rhs         c1_241_17   1.0
    rhs         c1_242_17   1.0
    rhs         c1_243_0    1.0
    rhs         c1_243_3    1.0
    rhs         c1_243_6    1.0
    rhs         c1_243_9    1.0
    rhs         c1_243_11   1.0
    rhs         c1_244_12   1.0
    rhs         c1_244_17   1.0
    rhs         c1_245_7    1.0
    rhs         c1_246_1    1.0
    rhs         c1_246_14   1.0
    rhs         c1_247_7    1.0
    rhs         c1_248_0    1.0
    rhs         c1_248_1    1.0
    rhs         c1_248_2    1.0
    rhs         c1_248_3    1.0
    rhs         c1_248_6    1.0
    rhs         c1_248_9    1.0
    rhs         c1_248_11   1.0
    rhs         c1_248_16   1.0
    rhs         c1_248_18   1.0
    rhs         c1_249_0    1.0
    rhs         c1_249_3    1.0
    rhs         c1_249_6    1.0
    rhs         c1_249_9    1.0
    rhs         c1_250_8    1.0
    rhs         c1_250_12   1.0
    rhs         c1_250_17   1.0
    rhs         c1_251_0    1.0
    rhs         c1_251_1    1.0
    rhs         c1_251_2    1.0
    rhs         c1_251_5    1.0
    rhs         c1_251_11   1.0
    rhs         c1_251_14   1.0
    rhs         c1_251_16   1.0
    rhs         c1_251_18   1.0
    rhs         c1_253_0    1.0
    rhs         c1_253_6    1.0
    rhs         c1_253_9    1.0
    rhs         c1_253_11   1.0
    rhs         c1_253_18   1.0
    rhs         c1_254_1    1.0
    rhs         c1_254_14   1.0
    rhs         c1_254_16   1.0
    rhs         c1_256_0    1.0
    rhs         c1_256_1    1.0
    rhs         c1_256_2    1.0
    rhs         c1_256_11   1.0
    rhs         c1_256_14   1.0
    rhs         c1_256_16   1.0
    rhs         c1_256_18   1.0
    rhs         c1_258_12   1.0
    rhs         c1_259_0    1.0
    rhs         c1_259_3    1.0
    rhs         c1_259_6    1.0
    rhs         c1_259_9    1.0
    rhs         c1_259_11   1.0
    rhs         c1_261_9    1.0
    rhs         c1_261_10   1.0
    rhs         c1_261_19   1.0
    rhs         c1_262_0    1.0
    rhs         c1_262_3    1.0
    rhs         c1_262_6    1.0
    rhs         c1_262_11   1.0
    rhs         c1_263_0    1.0
    rhs         c1_263_3    1.0
    rhs         c1_263_6    1.0
    rhs         c1_263_9    1.0
    rhs         c1_263_11   1.0
    rhs         c1_264_6    1.0
    rhs         c1_264_9    1.0
    rhs         c1_264_10   1.0
    rhs         c1_266_12   1.0
    rhs         c1_267_4    1.0
    rhs         c1_268_8    1.0
    rhs         c1_268_12   1.0
    rhs         c1_268_13   1.0
    rhs         c1_268_15   1.0
    rhs         c1_269_0    1.0
    rhs         c1_269_2    1.0
    rhs         c1_269_3    1.0
    rhs         c1_269_6    1.0
    rhs         c1_269_11   1.0
    rhs         c1_269_15   1.0
    rhs         c1_270_2    1.0
    rhs         c1_270_8    1.0
    rhs         c1_270_12   1.0
    rhs         c1_270_15   1.0
    rhs         c1_270_17   1.0
    rhs         c1_272_14   1.0
    rhs         c1_273_7    1.0
    rhs         c1_274_8    1.0
    rhs         c1_274_13   1.0
    rhs         c1_274_15   1.0
    rhs         c1_275_0    1.0
    rhs         c1_275_6    1.0
    rhs         c1_275_9    1.0
    rhs         c1_275_10   1.0
    rhs         c1_276_0    1.0
    rhs         c1_276_1    1.0
    rhs         c1_276_5    1.0
    rhs         c1_276_14   1.0
    rhs         c1_276_16   1.0
    rhs         c1_276_18   1.0
    rhs         c1_277_3    1.0
    rhs         c1_277_13   1.0
    rhs         c1_277_15   1.0
    rhs         c1_278_1    1.0
    rhs         c1_278_2    1.0
    rhs         c1_278_14   1.0
    rhs         c1_278_16   1.0
    rhs         c1_279_3    1.0
    rhs         c1_279_6    1.0
    rhs         c1_279_11   1.0
    rhs         c1_279_13   1.0
    rhs         c1_279_15   1.0
    rhs         c1_280_7    1.0
    rhs         c1_282_0    1.0
    rhs         c1_282_1    1.0
    rhs         c1_282_2    1.0
    rhs         c1_282_5    1.0
    rhs         c1_282_14   1.0
    rhs         c1_282_16   1.0
    rhs         c1_282_18   1.0
    rhs         c1_283_7    1.0
    rhs         c1_284_1    1.0
    rhs         c1_284_14   1.0
    rhs         c1_284_16   1.0
    rhs         c1_285_1    1.0
    rhs         c1_285_14   1.0
    rhs         c1_285_16   1.0
    rhs         c1_286_4    1.0
    rhs         c1_287_7    1.0
    rhs         c1_288_0    1.0
    rhs         c1_288_1    1.0
    rhs         c1_288_2    1.0
    rhs         c1_288_5    1.0
    rhs         c1_288_11   1.0
    rhs         c1_288_14   1.0
    rhs         c1_288_16   1.0
    rhs         c1_288_18   1.0
    rhs         c1_289_3    1.0
    rhs         c1_289_6    1.0
    rhs         c1_289_11   1.0
    rhs         c1_289_13   1.0
    rhs         c1_289_15   1.0
    rhs         c1_290_0    1.0
    rhs         c1_290_2    1.0
    rhs         c1_290_3    1.0
    rhs         c1_290_11   1.0
    rhs         c1_290_12   1.0
    rhs         c1_290_15   1.0
    rhs         c1_290_16   1.0
    rhs         c1_291_0    1.0
    rhs         c1_291_3    1.0
    rhs         c1_291_6    1.0
    rhs         c1_291_9    1.0
    rhs         c1_291_11   1.0
    rhs         c1_291_18   1.0
    rhs         c1_292_9    1.0
    rhs         c1_292_10   1.0
    rhs         c1_292_19   1.0
    rhs         c1_293_0    1.0
    rhs         c1_293_1    1.0
    rhs         c1_293_5    1.0
    rhs         c1_293_9    1.0
    rhs         c1_293_10   1.0
    rhs         c1_293_18   1.0
    rhs         c1_293_19   1.0
    rhs         c1_295_7    1.0
    rhs         c1_296_0    1.0
    rhs         c1_296_1    1.0
    rhs         c1_296_2    1.0
    rhs         c1_296_11   1.0
    rhs         c1_296_14   1.0
    rhs         c1_296_16   1.0
    rhs         c1_296_18   1.0
    rhs         c1_297_6    1.0
    rhs         c1_297_9    1.0
    rhs         c1_297_10   1.0
    rhs         c1_298_7    1.0
    rhs         c1_299_0    1.0
    rhs         c1_299_1    1.0
    rhs         c1_299_2    1.0
    rhs         c1_299_3    1.0
    rhs         c1_299_6    1.0
    rhs         c1_299_9    1.0
    rhs         c1_299_11   1.0
    rhs         c1_299_16   1.0
    rhs         c1_299_18   1.0
    rhs         c1_300_9    1.0
    rhs         c1_300_10   1.0
    rhs         c1_301_4    1.0
    rhs         c1_301_5    1.0
    rhs         c1_303_0    1.0
    rhs         c1_303_1    1.0
    rhs         c1_303_2    1.0
    rhs         c1_303_5    1.0
    rhs         c1_303_9    1.0
    rhs         c1_303_11   1.0
    rhs         c1_303_16   1.0
    rhs         c1_303_18   1.0
    rhs         c1_303_19   1.0
    rhs         c1_305_0    1.0
    rhs         c1_305_1    1.0
    rhs         c1_305_2    1.0
    rhs         c1_305_11   1.0
    rhs         c1_305_14   1.0
    rhs         c1_305_16   1.0
    rhs         c1_305_18   1.0
    rhs         c1_306_7    1.0
    rhs         c1_309_3    1.0
    rhs         c1_309_6    1.0
    rhs         c1_309_11   1.0
    rhs         c1_310_0    1.0
    rhs         c1_310_2    1.0
    rhs         c1_310_3    1.0
    rhs         c1_310_6    1.0
    rhs         c1_310_11   1.0
    rhs         c1_310_15   1.0
    rhs         c1_311_7    1.0
    rhs         c1_312_1    1.0
    rhs         c1_312_2    1.0
    rhs         c1_312_14   1.0
    rhs         c1_312_16   1.0
    rhs         c1_313_1    1.0
    rhs         c1_313_5    1.0
    rhs         c1_313_14   1.0
    rhs         c1_314_0    1.0
    rhs         c1_314_1    1.0
    rhs         c1_314_5    1.0
    rhs         c1_314_9    1.0
    rhs         c1_314_18   1.0
    rhs         c1_314_19   1.0
    rhs         c1_315_1    1.0
    rhs         c1_315_2    1.0
    rhs         c1_315_14   1.0
    rhs         c1_315_16   1.0
    rhs         c1_317_1    1.0
    rhs         c1_317_5    1.0
    rhs         c1_317_9    1.0
    rhs         c1_317_10   1.0
    rhs         c1_317_18   1.0
    rhs         c1_317_19   1.0
    rhs         c1_318_0    1.0
    rhs         c1_318_1    1.0
    rhs         c1_318_5    1.0
    rhs         c1_318_14   1.0
    rhs         c1_318_18   1.0
    rhs         c1_318_19   1.0
    rhs         c1_319_12   1.0
    rhs         c1_319_17   1.0
    rhs         c1_320_14   1.0
    rhs         c1_320_16   1.0
    rhs         c1_321_8    1.0
    rhs         c1_321_12   1.0
    rhs         c1_321_13   1.0
    rhs         c1_321_15   1.0
    rhs         c1_321_17   1.0
    rhs         c1_322_8    1.0
    rhs         c1_322_12   1.0
    rhs         c1_322_15   1.0
    rhs         c1_322_17   1.0
    rhs         c1_323_0    1.0
    rhs         c1_323_1    1.0
    rhs         c1_323_5    1.0
    rhs         c1_323_9    1.0
    rhs         c1_323_16   1.0
    rhs         c1_323_18   1.0
    rhs         c1_323_19   1.0
    rhs         c1_326_1    1.0
    rhs         c1_326_2    1.0
    rhs         c1_326_14   1.0
    rhs         c1_326_16   1.0
    rhs         c1_326_18   1.0
    rhs         c1_327_1    1.0
    rhs         c1_327_14   1.0
    rhs         c1_327_16   1.0
    rhs         c1_328_7    1.0
    rhs         c1_329_0    1.0
    rhs         c1_329_2    1.0
    rhs         c1_329_3    1.0
    rhs         c1_329_6    1.0
    rhs         c1_329_9    1.0
    rhs         c1_329_11   1.0
    rhs         c1_329_15   1.0
    rhs         c1_329_18   1.0
    rhs         c1_330_14   1.0
    rhs         c1_331_7    1.0
    rhs         c1_332_7    1.0
    rhs         c1_333_7    1.0
    rhs         c1_334_8    1.0
    rhs         c1_334_12   1.0
    rhs         c1_334_13   1.0
    rhs         c1_334_15   1.0
    rhs         c1_334_17   1.0
    rhs         c1_335_12   1.0
    rhs         c1_335_15   1.0
    rhs         c1_335_17   1.0
    rhs         c1_336_1    1.0
    rhs         c1_336_4    1.0
    rhs         c1_336_5    1.0
    rhs         c1_336_14   1.0
    rhs         c1_336_18   1.0
    rhs         c1_337_7    1.0
    rhs         c1_338_0    1.0
    rhs         c1_338_1    1.0
    rhs         c1_338_2    1.0
    rhs         c1_338_11   1.0
    rhs         c1_338_14   1.0
    rhs         c1_338_16   1.0
    rhs         c1_338_18   1.0
    rhs         c1_339_0    1.0
    rhs         c1_339_2    1.0
    rhs         c1_339_3    1.0
    rhs         c1_339_6    1.0
    rhs         c1_339_11   1.0
    rhs         c1_339_13   1.0
    rhs         c1_339_15   1.0
    rhs         c1_339_16   1.0
    rhs         c1_340_6    1.0
    rhs         c1_340_9    1.0
    rhs         c1_340_10   1.0
    rhs         c1_341_8    1.0
    rhs         c1_341_13   1.0
    rhs         c1_341_15   1.0
    rhs         c1_342_0    1.0
    rhs         c1_342_2    1.0
    rhs         c1_342_3    1.0
    rhs         c1_342_6    1.0
    rhs         c1_342_11   1.0
    rhs         c1_342_13   1.0
    rhs         c1_342_15   1.0
    rhs         c1_343_6    1.0
    rhs         c1_343_9    1.0
    rhs         c1_344_1    1.0
    rhs         c1_344_4    1.0
    rhs         c1_344_5    1.0
    rhs         c1_344_14   1.0
    rhs         c1_345_1    1.0
    rhs         c1_345_14   1.0
    rhs         c1_345_16   1.0
    rhs         c1_345_18   1.0
    rhs         c1_346_14   1.0
    rhs         c1_347_0    1.0
    rhs         c1_347_1    1.0
    rhs         c1_347_2    1.0
    rhs         c1_347_3    1.0
    rhs         c1_347_6    1.0
    rhs         c1_347_11   1.0
    rhs         c1_347_15   1.0
    rhs         c1_347_16   1.0
    rhs         c1_347_18   1.0
    rhs         c1_348_2    1.0
    rhs         c1_348_12   1.0
    rhs         c1_348_15   1.0
    rhs         c1_348_16   1.0
    rhs         c1_349_7    1.0
    rhs         c1_350_8    1.0
    rhs         c1_350_13   1.0
    rhs         c1_351_7    1.0
    rhs         c1_353_5    1.0
    rhs         c1_353_9    1.0
    rhs         c1_353_10   1.0
    rhs         c1_353_19   1.0
    rhs         c1_354_4    1.0
    rhs         c1_354_5    1.0
    rhs         c1_354_19   1.0
    rhs         c1_355_2    1.0
    rhs         c1_355_12   1.0
    rhs         c1_355_14   1.0
    rhs         c1_355_15   1.0
    rhs         c1_355_16   1.0
    rhs         c1_356_4    1.0
    rhs         c1_356_5    1.0
    rhs         c1_356_19   1.0
    rhs         c1_357_3    1.0
    rhs         c1_357_8    1.0
    rhs         c1_357_11   1.0
    rhs         c1_357_13   1.0
    rhs         c1_357_15   1.0
    rhs         c1_360_4    1.0
    rhs         c1_360_5    1.0
    rhs         c1_360_19   1.0
    rhs         c1_361_1    1.0
    rhs         c1_361_14   1.0
    rhs         c1_361_16   1.0
    rhs         c1_362_9    1.0
    rhs         c1_362_10   1.0
    rhs         c1_363_4    1.0
    rhs         c1_363_5    1.0
    rhs         c1_364_9    1.0
    rhs         c1_364_10   1.0
    rhs         c1_364_19   1.0
    rhs         c1_365_14   1.0
    rhs         c1_366_7    1.0
    rhs         c1_367_4    1.0
    rhs         c1_368_0    1.0
    rhs         c1_368_1    1.0
    rhs         c1_368_2    1.0
    rhs         c1_368_14   1.0
    rhs         c1_368_16   1.0
    rhs         c1_368_18   1.0
    rhs         c1_369_0    1.0
    rhs         c1_369_6    1.0
    rhs         c1_369_9    1.0
    rhs         c1_369_10   1.0
    rhs         c1_369_19   1.0
    rhs         c1_370_12   1.0
    rhs         c1_370_17   1.0
    rhs         c1_371_9    1.0
    rhs         c1_371_10   1.0
    rhs         c1_371_19   1.0
    rhs         c1_372_7    1.0
    rhs         c1_373_7    1.0
    rhs         c1_375_14   1.0
    rhs         c1_377_9    1.0
    rhs         c1_377_10   1.0
    rhs         c1_377_19   1.0
    rhs         c1_378_14   1.0
    rhs         c1_379_2    1.0
    rhs         c1_379_12   1.0
    rhs         c1_379_16   1.0
    rhs         c1_380_8    1.0
    rhs         c1_380_12   1.0
    rhs         c1_380_15   1.0
    rhs         c1_380_17   1.0
    rhs         c1_381_1    1.0
    rhs         c1_381_14   1.0
    rhs         c1_381_16   1.0
    rhs         c1_382_0    1.0
    rhs         c1_382_1    1.0
    rhs         c1_382_5    1.0
    rhs         c1_382_9    1.0
    rhs         c1_382_10   1.0
    rhs         c1_382_18   1.0
    rhs         c1_382_19   1.0
    rhs         c1_383_4    1.0
    rhs         c1_383_5    1.0
    rhs         c1_384_5    1.0
    rhs         c1_384_9    1.0
    rhs         c1_384_10   1.0
    rhs         c1_384_19   1.0
    rhs         c1_385_0    1.0
    rhs         c1_385_1    1.0
    rhs         c1_385_2    1.0
    rhs         c1_385_11   1.0
    rhs         c1_385_12   1.0
    rhs         c1_385_14   1.0
    rhs         c1_385_15   1.0
    rhs         c1_385_16   1.0
    rhs         c1_385_18   1.0
    rhs         c1_386_2    1.0
    rhs         c1_386_3    1.0
    rhs         c1_386_11   1.0
    rhs         c1_386_13   1.0
    rhs         c1_386_15   1.0
    rhs         c1_387_7    1.0
    rhs         c1_388_12   1.0
    rhs         c1_389_1    1.0
    rhs         c1_389_4    1.0
    rhs         c1_389_5    1.0
    rhs         c1_389_14   1.0
    rhs         c1_389_18   1.0
    rhs         c1_389_19   1.0
    rhs         c1_392_3    1.0
    rhs         c1_392_8    1.0
    rhs         c1_392_13   1.0
    rhs         c1_392_15   1.0
    rhs         c1_393_3    1.0
    rhs         c1_393_8    1.0
    rhs         c1_393_11   1.0
    rhs         c1_393_12   1.0
    rhs         c1_393_13   1.0
    rhs         c1_393_15   1.0
    rhs         c1_396_0    1.0
    rhs         c1_396_1    1.0
    rhs         c1_396_5    1.0
    rhs         c1_396_9    1.0
    rhs         c1_396_18   1.0
    rhs         c1_396_19   1.0
    rhs         c1_397_1    1.0
    rhs         c1_397_4    1.0
    rhs         c1_397_5    1.0
    rhs         c1_397_18   1.0
    rhs         c1_397_19   1.0
    rhs         c1_399_0    1.0
    rhs         c1_399_2    1.0
    rhs         c1_399_3    1.0
    rhs         c1_399_11   1.0
    rhs         c1_399_12   1.0
    rhs         c1_399_15   1.0
    rhs         c1_399_16   1.0
    rhs         c1_400_14   1.0
    rhs         c1_401_8    1.0
    rhs         c1_401_12   1.0
    rhs         c1_401_13   1.0
    rhs         c1_401_15   1.0
    rhs         c1_401_17   1.0
    rhs         c1_402_0    1.0
    rhs         c1_402_2    1.0
    rhs         c1_402_3    1.0
    rhs         c1_402_6    1.0
    rhs         c1_402_11   1.0
    rhs         c1_402_15   1.0
    rhs         c1_403_1    1.0
    rhs         c1_403_4    1.0
    rhs         c1_403_5    1.0
    rhs         c1_403_14   1.0
    rhs         c1_403_18   1.0
    rhs         c1_404_0    1.0
    rhs         c1_404_1    1.0
    rhs         c1_404_2    1.0
    rhs         c1_404_14   1.0
    rhs         c1_404_16   1.0
    rhs         c1_404_18   1.0
    rhs         c1_405_5    1.0
    rhs         c1_405_9    1.0
    rhs         c1_405_10   1.0
    rhs         c1_405_19   1.0
    rhs         c1_406_8    1.0
    rhs         c1_406_12   1.0
    rhs         c1_406_17   1.0
    rhs         c1_407_5    1.0
    rhs         c1_407_9    1.0
    rhs         c1_407_10   1.0
    rhs         c1_407_19   1.0
    rhs         c1_408_12   1.0
    rhs         c1_408_17   1.0
    rhs         c1_410_9    1.0
    rhs         c1_410_10   1.0
    rhs         c1_410_19   1.0
    rhs         c1_411_14   1.0
    rhs         c1_412_0    1.0
    rhs         c1_412_3    1.0
    rhs         c1_412_6    1.0
    rhs         c1_412_9    1.0
    rhs         c1_412_11   1.0
    rhs         c1_413_7    1.0
    rhs         c1_414_4    1.0
    rhs         c1_414_5    1.0
    rhs         c1_414_19   1.0
    rhs         c1_415_4    1.0
    rhs         c1_416_1    1.0
    rhs         c1_416_14   1.0
    rhs         c1_416_16   1.0
    rhs         c1_417_2    1.0
    rhs         c1_417_14   1.0
    rhs         c1_417_16   1.0
    rhs         c1_418_1    1.0
    rhs         c1_418_14   1.0
    rhs         c1_418_16   1.0
    rhs         c1_419_5    1.0
    rhs         c1_419_9    1.0
    rhs         c1_419_10   1.0
    rhs         c1_419_19   1.0
    rhs         c1_420_4    1.0
    rhs         c1_420_5    1.0
    rhs         c1_420_14   1.0
    rhs         c1_421_0    1.0
    rhs         c1_421_1    1.0
    rhs         c1_421_2    1.0
    rhs         c1_421_3    1.0
    rhs         c1_421_6    1.0
    rhs         c1_421_9    1.0
    rhs         c1_421_11   1.0
    rhs         c1_421_16   1.0
    rhs         c1_421_18   1.0
    rhs         c1_422_4    1.0
    rhs         c1_422_5    1.0
    rhs         c1_423_0    1.0
    rhs         c1_423_1    1.0
    rhs         c1_423_5    1.0
    rhs         c1_423_9    1.0
    rhs         c1_423_10   1.0
    rhs         c1_423_18   1.0
    rhs         c1_423_19   1.0
    rhs         c1_424_8    1.0
    rhs         c1_424_12   1.0
    rhs         c1_424_13   1.0
    rhs         c1_424_15   1.0
    rhs         c1_425_0    1.0
    rhs         c1_425_1    1.0
    rhs         c1_425_2    1.0
    rhs         c1_425_14   1.0
    rhs         c1_425_16   1.0
    rhs         c1_425_18   1.0
    rhs         c1_426_0    1.0
    rhs         c1_426_1    1.0
    rhs         c1_426_2    1.0
    rhs         c1_426_11   1.0
    rhs         c1_426_14   1.0
    rhs         c1_426_16   1.0
    rhs         c1_426_18   1.0
    rhs         c1_427_0    1.0
    rhs         c1_427_1    1.0
    rhs         c1_427_2    1.0
    rhs         c1_427_5    1.0
    rhs         c1_427_14   1.0
    rhs         c1_427_16   1.0
    rhs         c1_427_18   1.0
    rhs         c1_428_4    1.0
    rhs         c1_428_5    1.0
    rhs         c1_428_9    1.0
    rhs         c1_428_10   1.0
    rhs         c1_428_18   1.0
    rhs         c1_428_19   1.0
    rhs         c1_429_1    1.0
    rhs         c1_429_2    1.0
    rhs         c1_429_14   1.0
    rhs         c1_429_16   1.0
    rhs         c1_430_4    1.0
    rhs         c1_430_5    1.0
    rhs         c1_431_7    1.0
    rhs         c1_432_9    1.0
    rhs         c1_432_10   1.0
    rhs         c1_432_19   1.0
    rhs         c1_433_7    1.0
    rhs         c1_434_7    1.0
    rhs         c1_437_1    1.0
    rhs         c1_437_4    1.0
    rhs         c1_437_5    1.0
    rhs         c1_437_10   1.0
    rhs         c1_437_18   1.0
    rhs         c1_437_19   1.0
    rhs         c1_438_14   1.0
    rhs         c1_438_16   1.0
    rhs         c1_439_4    1.0
    rhs         c1_439_5    1.0
    rhs         c1_439_14   1.0
    rhs         c1_440_0    1.0
    rhs         c1_440_1    1.0
    rhs         c1_440_5    1.0
    rhs         c1_440_14   1.0
    rhs         c1_440_16   1.0
    rhs         c1_440_18   1.0
    rhs         c1_441_0    1.0
    rhs         c1_441_2    1.0
    rhs         c1_441_3    1.0
    rhs         c1_441_6    1.0
    rhs         c1_441_11   1.0
    rhs         c1_441_15   1.0
    rhs         c1_442_0    1.0
    rhs         c1_442_2    1.0
    rhs         c1_442_3    1.0
    rhs         c1_442_6    1.0
    rhs         c1_442_9    1.0
    rhs         c1_442_11   1.0
    rhs         c1_442_18   1.0
    rhs         c1_444_4    1.0
    rhs         c1_446_7    1.0
    rhs         c1_447_0    1.0
    rhs         c1_447_2    1.0
    rhs         c1_447_3    1.0
    rhs         c1_447_6    1.0
    rhs         c1_447_11   1.0
    rhs         c1_447_15   1.0
    rhs         c1_447_16   1.0
    rhs         c1_447_18   1.0
    rhs         c1_448_7    1.0
    rhs         c1_449_0    1.0
    rhs         c1_449_2    1.0
    rhs         c1_449_3    1.0
    rhs         c1_449_6    1.0
    rhs         c1_449_11   1.0
    rhs         c1_449_13   1.0
    rhs         c1_449_15   1.0
    rhs         c1_450_7    1.0
    rhs         c1_451_8    1.0
    rhs         c1_451_12   1.0
    rhs         c1_451_13   1.0
    rhs         c1_451_15   1.0
    rhs         c1_451_17   1.0
    rhs         c1_452_14   1.0
    rhs         c1_452_16   1.0
    rhs         c1_453_1    1.0
    rhs         c1_453_4    1.0
    rhs         c1_453_5    1.0
    rhs         c1_453_14   1.0
    rhs         c1_454_0    1.0
    rhs         c1_454_6    1.0
    rhs         c1_454_9    1.0
    rhs         c1_454_10   1.0
    rhs         c1_454_18   1.0
    rhs         c1_454_19   1.0
    rhs         c1_455_3    1.0
    rhs         c1_455_8    1.0
    rhs         c1_455_13   1.0
    rhs         c1_455_15   1.0
    rhs         c1_456_7    1.0
    rhs         c1_458_0    1.0
    rhs         c1_458_1    1.0
    rhs         c1_458_2    1.0
    rhs         c1_458_11   1.0
    rhs         c1_458_14   1.0
    rhs         c1_458_16   1.0
    rhs         c1_458_18   1.0
    rhs         c1_459_9    1.0
    rhs         c1_459_10   1.0
    rhs         c1_459_19   1.0
    rhs         c1_460_2    1.0
    rhs         c1_460_12   1.0
    rhs         c1_460_15   1.0
    rhs         c1_460_16   1.0
    rhs         c1_460_17   1.0
    rhs         c1_461_12   1.0
    rhs         c1_461_17   1.0
    rhs         c1_462_14   1.0
    rhs         c1_463_0    1.0
    rhs         c1_463_1    1.0
    rhs         c1_463_2    1.0
    rhs         c1_463_3    1.0
    rhs         c1_463_6    1.0
    rhs         c1_463_11   1.0
    rhs         c1_463_15   1.0
    rhs         c1_463_16   1.0
    rhs         c1_463_18   1.0
    rhs         c1_464_8    1.0
    rhs         c1_464_12   1.0
    rhs         c1_464_13   1.0
    rhs         c1_464_15   1.0
    rhs         c1_464_17   1.0
    rhs         c1_466_4    1.0
    rhs         c1_466_5    1.0
    rhs         c1_466_19   1.0
    rhs         c1_467_4    1.0
    rhs         c1_468_1    1.0
    rhs         c1_468_14   1.0
    rhs         c1_469_2    1.0
    rhs         c1_469_11   1.0
    rhs         c1_469_12   1.0
    rhs         c1_469_15   1.0
    rhs         c1_469_16   1.0
    rhs         c1_470_9    1.0
    rhs         c1_470_10   1.0
    rhs         c1_470_19   1.0
    rhs         c1_471_0    1.0
    rhs         c1_471_1    1.0
    rhs         c1_471_5    1.0
    rhs         c1_471_14   1.0
    rhs         c1_471_18   1.0
    rhs         c1_471_19   1.0
    rhs         c1_472_4    1.0
    rhs         c1_472_5    1.0
    rhs         c1_472_19   1.0
    rhs         c1_473_9    1.0
    rhs         c1_473_10   1.0
    rhs         c1_473_19   1.0
    rhs         c1_474_2    1.0
    rhs         c1_474_3    1.0
    rhs         c1_474_8    1.0
    rhs         c1_474_11   1.0
    rhs         c1_474_12   1.0
    rhs         c1_474_13   1.0
    rhs         c1_474_15   1.0
    rhs         c1_474_17   1.0
    rhs         c1_475_7    1.0
    rhs         c1_476_2    1.0
    rhs         c1_476_12   1.0
    rhs         c1_476_16   1.0
    rhs         c1_476_17   1.0
    rhs         c1_478_0    1.0
    rhs         c1_478_3    1.0
    rhs         c1_478_6    1.0
    rhs         c1_478_11   1.0
    rhs         c1_479_2    1.0
    rhs         c1_479_8    1.0
    rhs         c1_479_11   1.0
    rhs         c1_479_12   1.0
    rhs         c1_479_15   1.0
    rhs         c1_479_16   1.0
    rhs         c1_479_17   1.0
    rhs         c1_481_0    1.0
    rhs         c1_481_1    1.0
    rhs         c1_481_2    1.0
    rhs         c1_481_3    1.0
    rhs         c1_481_6    1.0
    rhs         c1_481_11   1.0
    rhs         c1_481_15   1.0
    rhs         c1_481_16   1.0
    rhs         c1_481_18   1.0
    rhs         c1_482_8    1.0
    rhs         c1_482_12   1.0
    rhs         c1_482_13   1.0
    rhs         c1_482_15   1.0
    rhs         c1_482_17   1.0
    rhs         c1_484_3    1.0
    rhs         c1_484_8    1.0
    rhs         c1_484_13   1.0
    rhs         c1_484_15   1.0
    rhs         c1_486_2    1.0
    rhs         c1_486_12   1.0
    rhs         c1_486_14   1.0
    rhs         c1_486_16   1.0
    rhs         c1_487_12   1.0
    rhs         c1_487_17   1.0
    rhs         c1_488_14   1.0
    rhs         c1_489_0    1.0
    rhs         c1_489_1    1.0
    rhs         c1_489_2    1.0
    rhs         c1_489_3    1.0
    rhs         c1_489_6    1.0
    rhs         c1_489_9    1.0
    rhs         c1_489_11   1.0
    rhs         c1_489_16   1.0
    rhs         c1_489_18   1.0
    rhs         c1_490_2    1.0
    rhs         c1_490_12   1.0
    rhs         c1_490_15   1.0
    rhs         c1_490_16   1.0
    rhs         c1_490_17   1.0
    rhs         c1_491_0    1.0
    rhs         c1_491_3    1.0
    rhs         c1_491_6    1.0
    rhs         c1_491_9    1.0
    rhs         c1_491_11   1.0
    rhs         c1_492_0    1.0
    rhs         c1_492_6    1.0
    rhs         c1_492_9    1.0
    rhs         c1_492_10   1.0
    rhs         c1_492_19   1.0
    rhs         c1_493_14   1.0
    rhs         c1_494_4    1.0
    rhs         c1_496_9    1.0
    rhs         c1_496_10   1.0
    rhs         c1_497_1    1.0
    rhs         c1_497_4    1.0
    rhs         c1_497_5    1.0
    rhs         c1_497_14   1.0
    rhs         c1_498_7    1.0
    rhs         c1_499_12   1.0
    rhs         c1_499_17   1.0
    rhs         budget      4.0
    rhs         link0       1.0
    rhs         link1       1.0
    rhs         link2       1.0
    rhs         link3       1.0
    rhs         link4       1.0
    rhs         link5       1.0
    rhs         link6       1.0
    rhs         link7       1.0
    rhs         link8       1.0
    rhs         link9       1.0
    rhs         link10      1.0
    rhs         link11      1.0
    rhs         link12      1.0
    rhs         link13      1.0
    rhs         link14      1.0
    rhs         link15      1.0
    rhs         link16      1.0
    rhs         link17      1.0
    rhs         link18      1.0
    rhs         link19      1.0
BOUNDS
 BV bnd       x0
 BV bnd       x1
 BV bnd       x2
 BV bnd       x3
 BV bnd       x4
 BV bnd       x5
 BV bnd       x6
 BV bnd       x7
 BV bnd       x8
 BV bnd       x9
 BV bnd       x10
 BV bnd       x11
 BV bnd       x12
 BV bnd       x13
 BV bnd       x14
 BV bnd       x15
 BV bnd       x16
 BV bnd       x17
 BV bnd       x18
 BV bnd       x19
 BV bnd       y0
 BV bnd       y1
 BV bnd       y2
 BV bnd       y3
 BV bnd       y4
 BV bnd       y5
 BV bnd       y6
 BV bnd       y7
 BV bnd       y8
 BV bnd       y9
 BV bnd       y10
 BV bnd       y11
 BV bnd       y12
 BV bnd       y13
 BV bnd       y14
 BV bnd       y15
 BV bnd       y16
 BV bnd       y17
 BV bnd       y18
 BV bnd       y19
 UP bnd       r0          1.0
 UP bnd       r1          1.0
 UP bnd       r2          1.0
 UP bnd       r3          1.0
 UP bnd       r4          1.0
 UP bnd       r5          1.0
 UP bnd       r6          1.0
 UP bnd       r7          1.0
 UP bnd       r8          1.0
 UP bnd       r9          1.0
 UP bnd       r10         1.0
 UP bnd       r11         1.0
 UP bnd       r12         1.0
 UP bnd       r13         1.0
 UP bnd       r14         1.0
 UP bnd       r15         1.0
 UP bnd       r16         1.0
 UP bnd       r17         1.0
 UP bnd       r18         1.0
 UP bnd       r19         1.0
 UP bnd       r20         1.0
 UP bnd       r21         1.0
 UP bnd       r22         1.0
 UP bnd       r23         1.0
 UP bnd       r24         1.0
 UP bnd       r25         1.0
 UP bnd       r26         1.0
 UP bnd       r27         1.0
 UP bnd       r28         1.0
 UP bnd       r29         1.0
 UP bnd       r30         1.0
 UP bnd       r31         1.0
 UP bnd       r32         1.0
 UP bnd       r33         1.0
 UP bnd       r34         1.0
 UP bnd       r35         1.0
 UP bnd       r36         1.0
 UP bnd       r37         1.0
 UP bnd       r38         1.0
 UP bnd       r39         1.0
 UP bnd       r40         1.0
 UP bnd       r41         1.0
 UP bnd       r42         1.0
 UP bnd       r43         1.0
 UP bnd       r44         1.0
 UP bnd       r45         1.0
 UP bnd       r46         1.0
 UP bnd       r47         1.0
 UP bnd       r48         1.0
 UP bnd       r49         1.0
 UP bnd       r50         1.0
 UP bnd       r51         1.0
 UP bnd       r52         1.0
 UP bnd       r53         1.0
 UP bnd       r54         1.0
 UP bnd       r55         1.0
 UP bnd       r56         1.0
 UP bnd       r57         1.0
 UP bnd       r58         1.0
 UP bnd       r59         1.0
 UP bnd       r60         1.0
 UP bnd       r61         1.0
 UP bnd       r62         1.0
 UP bnd       r63         1.0
 UP bnd       r64         1.0
 UP bnd       r65         1.0
 UP bnd       r66         1.0
 UP bnd       r67         1.0
 UP bnd       r68         1.0
 UP bnd       r69         1.0
 UP bnd       r70         1.0
 UP bnd       r71         1.0
 UP bnd       r72         1.0
 UP bnd       r73         1.0
 UP bnd       r74         1.0
 UP bnd       r75         1.0
 UP bnd       r76         1.0
 UP bnd       r77         1.0
 UP bnd       r78         1.0
 UP bnd       r79         1.0
 UP bnd       r80         1.0
 UP bnd       r81         1.0
 UP bnd       r82         1.0
 UP bnd       r83         1.0
 UP bnd       r84         1.0
 UP bnd       r85         1.0
 UP bnd       r86         1.0
 UP bnd       r87         1.0
 UP bnd       r88         1.0
 UP bnd       r89         1.0
 UP bnd       r90         1.0
 UP bnd       r91         1.0
 UP bnd       r92         1.0
 UP bnd       r93         1.0
 UP bnd       r94         1.0
 UP bnd       r95         1.0
 UP bnd       r96         1.0
 UP bnd       r97         1.0
 UP bnd       r98         1.0
 UP bnd       r99         1.0
 UP bnd       r100        1.0
 UP bnd       r101        1.0
 UP bnd       r102        1.0
 UP bnd       r103        1.0
 UP bnd       r104        1.0
 UP bnd       r105        1.0
 UP bnd       r106        1.0
 UP bnd       r107        1.0
 UP bnd       r108        1.0
 UP bnd       r109        1.0
 UP bnd       r110        1.0
 UP bnd       r111        1.0
 UP bnd       r112        1.0
 UP bnd       r113        1.0
 UP bnd       r114        1.0
 UP bnd       r115        1.0
 UP bnd       r116        1.0
 UP bnd       r117        1.0
 UP bnd       r118        1.0
 UP bnd       r119        1.0
 UP bnd       r120        1.0
 UP bnd       r121        1.0
 UP bnd       r122        1.0
 UP bnd       r123        1.0
 UP bnd       r124        1.0
 UP bnd       r125        1.0
 UP bnd       r126        1.0
 UP bnd       r127        1.0
 UP bnd       r128        1.0
 UP bnd       r129        1.0
 UP bnd       r130        1.0
 UP bnd       r131        1.0
 UP bnd       r132        1.0
 UP bnd       r133        1.0
 UP bnd       r134        1.0
 UP bnd       r135        1.0
 UP bnd       r136        1.0
 UP bnd       r137        1.0
 UP bnd       r138        1.0
 UP bnd       r139        1.0
 UP bnd       r140        1.0
 UP bnd       r141        1.0
 UP bnd       r142        1.0
 UP bnd       r143        1.0
 UP bnd       r144        1.0
 UP bnd       r145        1.0
 UP bnd       r146        1.0
 UP bnd       r147        1.0
 UP bnd       r148        1.0
 UP bnd       r149        1.0
 UP bnd       r150        1.0
 UP bnd       r151        1.0
 UP bnd       r152        1.0
 UP bnd       r153        1.0
 UP bnd       r154        1.0
 UP bnd       r155        1.0
 UP bnd       r156        1.0
 UP bnd       r157        1.0
 UP bnd       r158        1.0
 UP bnd       r159        1.0
 UP bnd       r160        1.0
 UP bnd       r161        1.0
 UP bnd       r162        1.0
 UP bnd       r163        1.0
 UP bnd       r164        1.0
 UP bnd       r165        1.0
 UP bnd       r166        1.0
 UP bnd       r167        1.0
 UP bnd       r168        1.0
 UP bnd       r169        1.0
 UP bnd       r170        1.0
 UP bnd       r171        1.0
 UP bnd       r172        1.0
 UP bnd       r173        1.0
 UP bnd       r174        1.0
 UP bnd       r175        1.0
 UP bnd       r176        1.0
 UP bnd       r177        1.0
 UP bnd       r178        1.0
 UP bnd       r179        1.0
 UP bnd       r180        1.0
 UP bnd       r181        1.0
 UP bnd       r182        1.0
 UP bnd       r183        1.0
 UP bnd       r184        1.0
 UP bnd       r185        1.0
 UP bnd       r186        1.0
 UP bnd       r187        1.0
 UP bnd       r188        1.0
 UP bnd       r189        1.0
 UP bnd       r190        1.0
 UP bnd       r191        1.0
 UP bnd       r192        1.0
 UP bnd       r193        1.0
 UP bnd       r194        1.0
 UP bnd       r195        1.0
 UP bnd       r196        1.0
 UP bnd       r197        1.0
 UP bnd       r198        1.0
 UP bnd       r199        1.0
 UP bnd       r200        1.0
 UP bnd       r201        1.0
 UP bnd       r202        1.0
 UP bnd       r203        1.0
 UP bnd       r204        1.0
 UP bnd       r205        1.0
 UP bnd       r206        1.0
 UP bnd       r207        1.0
 UP bnd       r208        1.0
 UP bnd       r209        1.0
 UP bnd       r210        1.0
 UP bnd       r211        1.0
 UP bnd       r212        1.0
 UP bnd       r213        1.0
 UP bnd       r214        1.0
 UP bnd       r215        1.0
 UP bnd       r216        1.0
 UP bnd       r217        1.0
 UP bnd       r218        1.0
 UP bnd       r219        1.0
 UP bnd       r220        1.0
 UP bnd       r221        1.0
 UP bnd       r222        1.0
 UP bnd       r223        1.0
 UP bnd       r224        1.0
 UP bnd       r225        1.0
 UP bnd       r226        1.0
 UP bnd       r227        1.0
 UP bnd       r228        1.0
 UP bnd       r229        1.0
 UP bnd       r230        1.0
 UP bnd       r231        1.0
 UP bnd       r232        1.0
 UP bnd       r233        1.0
 UP bnd       r234        1.0
 UP bnd       r235        1.0
 UP bnd       r236        1.0
 UP bnd       r237        1.0
 UP bnd       r238        1.0
 UP bnd       r239        1.0
 UP bnd       r240        1.0
 UP bnd       r241        1.0
 UP bnd       r242        1.0
 UP bnd       r243        1.0
 UP bnd       r244        1.0
 UP bnd       r245        1.0
 UP bnd       r246        1.0
 UP bnd       r247        1.0
 UP bnd       r248        1.0
 UP bnd       r249        1.0
 UP bnd       r250        1.0
 UP bnd       r251        1.0
 UP bnd       r252        1.0
 UP bnd       r253        1.0
 UP bnd       r254        1.0
 UP bnd       r255        1.0
 UP bnd       r256        1.0
 UP bnd       r257        1.0
 UP bnd       r258        1.0
 UP bnd       r259        1.0
 UP bnd       r260        1.0
 UP bnd       r261        1.0
 UP bnd       r262        1.0
 UP bnd       r263        1.0
 UP bnd       r264        1.0
 UP bnd       r265        1.0
 UP bnd       r266        1.0
 UP bnd       r267        1.0
 UP bnd       r268        1.0
 UP bnd       r269        1.0
 UP bnd       r270        1.0
 UP bnd       r271        1.0
 UP bnd       r272        1.0
 UP bnd       r273        1.0
 UP bnd       r274        1.0
 UP bnd       r275        1.0
 UP bnd       r276        1.0
 UP bnd       r277        1.0
 UP bnd       r278        1.0
 UP bnd       r279        1.0
 UP bnd       r280        1.0
 UP bnd       r281        1.0
 UP bnd       r282        1.0
 UP bnd       r283        1.0
 UP bnd       r284        1.0
 UP bnd       r285        1.0
 UP bnd       r286        1.0
 UP bnd       r287        1.0
 UP bnd       r288        1.0
 UP bnd       r289        1.0
 UP bnd       r290        1.0
 UP bnd       r291        1.0
 UP bnd       r292        1.0
 UP bnd       r293        1.0
 UP bnd       r294        1.0
 UP bnd       r295        1.0
 UP bnd       r296        1.0
 UP bnd       r297        1.0
 UP bnd       r298        1.0
 UP bnd       r299        1.0
 UP bnd       r300        1.0
 UP bnd       r301        1.0
 UP bnd       r302        1.0
 UP bnd       r303        1.0
 UP bnd       r304        1.0
 UP bnd       r305        1.0
 UP bnd       r306        1.0
 UP bnd       r307        1.0
 UP bnd       r308        1.0
 UP bnd       r309        1.0
 UP bnd       r310        1.0
 UP bnd       r311        1.0
 UP bnd       r312        1.0
 UP bnd       r313        1.0
 UP bnd       r314        1.0
 UP bnd       r315        1.0
 UP bnd       r316        1.0
 UP bnd       r317        1.0
 UP bnd       r318        1.0
 UP bnd       r319        1.0
 UP bnd       r320        1.0
 UP bnd       r321        1.0
 UP bnd       r322        1.0
 UP bnd       r323        1.0
 UP bnd       r324        1.0
 UP bnd       r325        1.0
 UP bnd       r326        1.0
 UP bnd       r327        1.0
 UP bnd       r328        1.0
 UP bnd       r329        1.0
 UP bnd       r330        1.0
 UP bnd       r331        1.0
 UP bnd       r332        1.0
 UP bnd       r333        1.0
 UP bnd       r334        1.0
 UP bnd       r335        1.0
 UP bnd       r336        1.0
 UP bnd       r337        1.0
 UP bnd       r338        1.0
 UP bnd       r339        1.0
 UP bnd       r340        1.0
 UP bnd       r341        1.0
 UP bnd       r342        1.0
 UP bnd       r343        1.0
 UP bnd       r344        1.0
 UP bnd       r345        1.0
 UP bnd       r346        1.0
 UP bnd       r347        1.0
 UP bnd       r348        1.0
 UP bnd       r349        1.0
 UP bnd       r350        1.0
 UP bnd       r351        1.0
 UP bnd       r352        1.0
 UP bnd       r353        1.0
 UP bnd       r354        1.0
 UP bnd       r355        1.0
 UP bnd       r356        1.0
 UP bnd       r357        1.0
 UP bnd       r358        1.0
 UP bnd       r359        1.0
 UP bnd       r360        1.0
 UP bnd       r361        1.0
 UP bnd       r362        1.0
 UP bnd       r363        1.0
 UP bnd       r364        1.0
 UP bnd       r365        1.0
 UP bnd       r366        1.0
 UP bnd       r367        1.0
 UP bnd       r368        1.0
 UP bnd       r369        1.0
 UP bnd       r370        1.0
 UP bnd       r371        1.0
 UP bnd       r372        1.0
 UP bnd       r373        1.0
 UP bnd       r374        1.0
 UP bnd       r375        1.0
 UP bnd       r376        1.0
 UP bnd       r377        1.0
 UP bnd       r378        1.0
 UP bnd       r379        1.0
 UP bnd       r380        1.0
 UP bnd       r381        1.0
 UP bnd       r382        1.0
 UP bnd       r383        1.0
 UP bnd       r384        1.0
 UP bnd       r385        1.0
 UP bnd       r386        1.0
 UP bnd       r387        1.0
 UP bnd       r388        1.0
 UP bnd       r389        1.0
 UP bnd       r390        1.0
 UP bnd       r391        1.0
 UP bnd       r392        1.0
 UP bnd       r393        1.0
 UP bnd       r394        1.0
 UP bnd       r395        1.0
 UP bnd       r396        1.0
 UP bnd       r397        1.0
 UP bnd       r398        1.0
 UP bnd       r399        1.0
 UP bnd       r400        1.0
 UP bnd       r401        1.0
 UP bnd       r402        1.0
 UP bnd       r403        1.0
 UP bnd       r404        1.0
 UP bnd       r405        1.0
 UP bnd       r406        1.0
 UP bnd       r407        1.0
 UP bnd       r408        1.0
 UP bnd       r409        1.0
 UP bnd       r410        1.0
 UP bnd       r411        1.0
 UP bnd       r412        1.0
 UP bnd       r413        1.0
 UP bnd       r414        1.0
 UP bnd       r415        1.0
 UP bnd       r416        1.0
 UP bnd       r417        1.0
 UP bnd       r418        1.0
 UP bnd       r419        1.0
 UP bnd       r420        1.0
 UP bnd       r421        1.0
 UP bnd       r422        1.0
 UP bnd       r423        1.0
 UP bnd       r424        1.0
 UP bnd       r425        1.0
 UP bnd       r426        1.0
 UP bnd       r427        1.0
 UP bnd       r428        1.0
 UP bnd       r429        1.0
 UP bnd       r430        1.0
 UP bnd       r431        1.0
 UP bnd       r432        1.0
 UP bnd       r433        1.0
 UP bnd       r434        1.0
 UP bnd       r435        1.0
 UP bnd       r436        1.0
 UP bnd       r437        1.0
 UP bnd       r438        1.0
 UP bnd       r439        1.0
 UP bnd       r440        1.0
 UP bnd       r441        1.0
 UP bnd       r442        1.0
 UP bnd       r443        1.0
 UP bnd       r444        1.0
 UP bnd       r445        1.0
 UP bnd       r446        1.0
 UP bnd       r447        1.0
 UP bnd       r448        1.0
 UP bnd       r449        1.0
 UP bnd       r450        1.0
 UP bnd       r451        1.0
 UP bnd       r452        1.0
 UP bnd       r453        1.0
 UP bnd       r454        1.0
 UP bnd       r455        1.0
 UP bnd       r456        1.0
 UP bnd       r457        1.0
 UP bnd       r458        1.0
 UP bnd       r459        1.0
 UP bnd       r460        1.0
 UP bnd       r461        1.0
 UP bnd       r462        1.0
 UP bnd       r463        1.0
 UP bnd       r464        1.0
 UP bnd       r465        1.0
 UP bnd       r466        1.0
 UP bnd       r467        1.0
 UP bnd       r468        1.0
 UP bnd       r469        1.0
 UP bnd       r470        1.0
 UP bnd       r471        1.0
 UP bnd       r472        1.0
 UP bnd       r473        1.0
 UP bnd       r474        1.0
 UP bnd       r475        1.0
 UP bnd       r476        1.0
 UP bnd       r477        1.0
 UP bnd       r478        1.0
 UP bnd       r479        1.0
 UP bnd       r480        1.0
 UP bnd       r481        1.0
 UP bnd       r482        1.0
 UP bnd       r483        1.0
 UP bnd       r484        1.0
 UP bnd       r485        1.0
 UP bnd       r486        1.0
 UP bnd       r487        1.0
 UP bnd       r488        1.0
 UP bnd       r489        1.0
 UP bnd       r490        1.0
 UP bnd       r491        1.0
 UP bnd       r492        1.0
 UP bnd       r493        1.0
 UP bnd       r494        1.0
 UP bnd       r495        1.0
 UP bnd       r496        1.0
 UP bnd       r497        1.0
 UP bnd       r498        1.0
 UP bnd       r499        1.0
ENDATA
