NAME          mmclbp_m15_n50_s0
ROWS
 N  obj
 L  cover
 L  c1_0_2
 L  c1_0_3
 L  c1_0_8
 L  c1_0_11
 L  c1_0_12
 L  c1_0_13
 L  c1_1_0
 L  c1_1_1
 L  c1_1_2
 L  c1_1_11
 L  c1_1_14
 L  c1_2_8
 L  c1_2_12
 L  c1_3_0
 L  c1_3_1
 L  c1_3_2
 L  c1_3_5
 L  c1_3_11
 L  c1_3_14
 L  c1_4_5
 L  c1_4_9
 L  c1_4_10
 L  c1_5_1
 L  c1_5_2
 L  c1_5_14
 L  c1_7_0
 L  c1_7_1
 L  c1_7_2
 L  c1_7_5
 L  c1_7_9
 L  c1_7_11
 L  c1_8_7
 L  c1_9_14
 L  c1_10_1
 L  c1_10_2
 L  c1_10_5
 L  c1_10_14
 L  c1_12_7
 L  c1_13_14
 L  c1_14_14
 L  c1_15_7
 L  c1_20_4
 L  c1_20_5
 L  c1_21_4
 L  c1_21_5
 L  c1_21_10
 L  c1_23_7
 L  c1_24_7
 L  c1_25_2
 L  c1_25_14
 L  c1_26_8
 L  c1_26_12
 L  c1_26_13
 L  c1_27_14
 L  c1_29_0
 L  c1_29_3
 L  c1_29_6
 L  c1_29_9
 L  c1_29_11
 L  c1_30_0
 L  c1_30_2
 L  c1_30_3
 L  c1_30_11
 L  c1_30_12
 L  c1_31_8
 L  c1_31_12
 L  c1_31_13
 L  c1_32_7
 L  c1_35_14
 L  c1_36_6
 L  c1_36_9
 L  c1_37_2
 L  c1_37_12
 L  c1_38_0
 L  c1_38_1
 L  c1_38_2
 L  c1_38_5
 L  c1_38_11
 L  c1_38_14
 L  c1_39_3
 L  c1_39_8
 L  c1_39_13
 L  c1_40_0
 L  c1_40_2
 L  c1_40_3
 L  c1_40_6
 L  c1_40_11
 L  c1_41_1
 L  c1_41_5
 L  c1_41_14
 L  c1_42_1
 L  c1_42_4
 L  c1_42_5
 L  c1_43_4
 L  c1_43_5
 L  c1_43_10
 L  c1_44_5
 L  c1_44_9
 L  c1_44_10
 L  c1_45_1
 L  c1_45_4
 L  c1_45_5
 L  c1_45_14
 L  c1_46_4
 L  c1_46_5
 L  c1_46_10
 L  c1_47_0
 L  c1_47_1
 L  c1_47_2
 L  c1_47_11
 L  c1_47_14
 L  c1_48_7
 L  c1_49_1
 L  c1_49_14
 L  c2_0
 L  c2_1
 L  c2_2
 L  c2_3
 L  c2_4
 L  c2_5
 L  c2_6
 L  c2_7
 L  c2_8
 L  c2_9
 L  c2_10
 L  c2_11
 L  c2_12
 L  c2_13
 L  c2_14
 L  c2_15
 L  c2_16
 L  c2_17
 L  c2_18
 L  c2_19
 L  c2_20
 L  c2_21
 L  c2_22
 L  c2_23
 L  c2_24
 L  c2_25
 L  c2_26
 L  c2_27
 L  c2_28
 L  c2_29
 L  c2_30
 L  c2_31
 L  c2_32
 L  c2_33
 L  c2_34
 L  c2_35
 L  c2_36
 L  c2_37
 L  c2_38
 L  c2_39
 L  c2_40
 L  c2_41
 L  c2_42
 L  c2_43
 L  c2_44
 L  c2_45
 L  c2_46
 L  c2_47
 L  c2_48
 L  c2_49
 L  budget
 L  link0
 L  link1
 L  link2
 L  link3
 L  link4
 L  link5
 L  link6
 L  link7
 L  link8
 L  link9
 L  link10
 L  link11
 L  link12
 L  link13
 L  link14
COLUMNS
    MARKER                'MARKER'                 'INTORG'
    x0          obj         1.0                       link0       1.0
    x1          obj         1.0                       link1       1.0
    x2          obj         1.0                       link2       1.0
    x3          obj         1.0                       link3       1.0
    x4          obj         1.0                       link4       1.0
    x5          obj         1.0                       link5       1.0
    x6          obj         1.0                       link6       1.0
    x7          obj         1.0                       link7       1.0
    x8          obj         1.0                       link8       1.0
    x9          obj         1.0                       link9       1.0
    x10         obj         1.0                       link10      1.0
    x11         obj         1.0                       link11      1.0
    x12         obj         1.0                       link12      1.0
    x13         obj         1.0                       link13      1.0
    x14         obj         1.0                       link14      1.0
    y0          c1_1_0      0.4530639734382038        c1_3_0      0.0
    y0          c1_7_0      0.0                       c1_29_0     0.7098299806519184
    y0          c1_30_0     0.7828670880221626        c1_38_0     0.2133472538554061
    y0          c1_40_0     0.38745611221615806       c1_47_0     0.3844637122913236
    y0          c2_1        -0.5469360265617962       c2_3        -1.0
    y0          c2_7        -1.0                      c2_29       -0.29017001934808156
    y0          c2_30       -0.2171329119778373       c2_38       -0.7866527461445939
    y0          c2_40       -0.612543887783842        c2_47       -0.6155362877086764
    y0          budget      1.0                       link0       1.0
    y1          c1_1_1      0.20338799065512658       c1_3_1      0.0
    y1          c1_5_1      0.8634937056524671        c1_7_1      0.11003890598023747
    y1          c1_10_1     0.0                       c1_38_1     0.0
    y1          c1_41_1     0.8626380981797919        c1_42_1     0.8458198806890633
    y1          c1_45_1     0.0                       c1_47_1     0.5673400184537492
    y1          c1_49_1     0.8530842099552206        c2_1        -0.7966120093448734
    y1          c2_3        -1.0                      c2_5        -0.13650629434753292
    y1          c2_7        -0.8899610940197625       c2_10       -1.0
    y1          c2_38       -1.0                      c2_41       -0.13736190182020816
    y1          c2_42       -0.15418011931093673      c2_45       -1.0
    y1          c2_47       -0.4326599815462508       c2_49       -0.14691579004477942
    y1          budget      1.0                       link1       1.0
    y2          c1_0_2      0.6556702512529178        c1_1_2      0.0
    y2          c1_3_2      0.5767528842709           c1_5_2      0.7212282354667673
    y2          c1_7_2      0.8109073347081013        c1_10_2     0.8360012059846277
    y2          c1_25_2     0.8378040501942572        c1_30_2     0.0
    y2          c1_37_2     0.5614919991378621        c1_38_2     0.5308320022174063
    y2          c1_40_2     0.6423687446167691        c1_47_2     0.0
    y2          c2_0        -0.3443297487470823       c2_1        -1.0
    y2          c2_3        -0.4232471157291          c2_5        -0.2787717645332327
    y2          c2_7        -0.1890926652918987       c2_10       -0.1639987940153723
    y2          c2_25       -0.16219594980574287      c2_30       -1.0
    y2          c2_37       -0.4385080008621379       c2_38       -0.46916799778259366
    y2          c2_40       -0.35763125538323093      c2_47       -1.0
    y2          budget      1.0                       link2       1.0
    y3          c1_0_3      0.6794347969847003        c1_29_3     0.13959987933553208
    y3          c1_30_3     0.8362875316236981        c1_39_3     0.7394753381392907
    y3          c1_40_3     0.0                       c2_0        -0.3205652030152997
    y3          c2_29       -0.8604001206644679       c2_30       -0.16371246837630196
    y3          c2_39       -0.26052466186070933      c2_40       -1.0
    y3          budget      1.0                       link3       1.0
    y4          c1_20_4     0.0                       c1_21_4     0.7346927512016077
    y4          c1_42_4     0.22624448850986123       c1_43_4     0.703440983457345
    y4          c1_45_4     0.8632235026408075        c1_46_4     0.8519023433867706
    y4          c2_20       -1.0                      c2_21       -0.26530724879839235
    y4          c2_42       -0.7737555114901388       c2_43       -0.2965590165426551
    y4          c2_45       -0.13677649735919253      c2_46       -0.14809765661322938
    y4          budget      1.0                       link4       1.0
    y5          c1_3_5      0.6323628394814949        c1_4_5      0.7090141367664207
    y5          c1_7_5      0.5658610600743565        c1_10_5     0.7957367967966154
    y5          c1_20_5     0.5993391162550856        c1_21_5     0.6322148138370098
    y5          c1_38_5     0.655285560670164         c1_41_5     0.8240298909683283
    y5          c1_42_5     0.013161985827966127      c1_43_5     0.0
    y5          c1_44_5     0.551291018903837         c1_45_5     0.0
    y5          c1_46_5     0.6356933470132475        c2_3        -0.36763716051850515
    y5          c2_4        -0.2909858632335793       c2_7        -0.43413893992564345
    y5          c2_10       -0.2042632032033847       c2_20       -0.40066088374491443
    y5          c2_21       -0.3677851861629902       c2_38       -0.344714439329836
    y5          c2_41       -0.17597010903167165      c2_42       -0.9868380141720339
    y5          c2_43       -1.0                      c2_44       -0.448708981096163
    y5          c2_45       -1.0                      c2_46       -0.36430665298675247
    y5          budget      1.0                       link5       1.0
    y6          c1_29_6     0.0                       c1_36_6     0.43255891368519195
    y6          c1_40_6     0.15474696924275955       c2_29       -1.0
    y6          c2_36       -0.567441086314808        c2_40       -0.8452530307572405
    y6          budget      1.0                       link6       1.0
    y7          c1_8_7      0.1665656425349623        c1_12_7     0.2939037735219331
    y7          c1_15_7     0.0                       c1_23_7     0.703306409747282
    y7          c1_24_7     0.7557752609911987        c1_32_7     0.7937114105164013
    y7          c1_48_7     0.730003646855689         c2_8        -0.8334343574650377
    y7          c2_12       -0.7060962264780669       c2_15       -1.0
    y7          c2_23       -0.296693590252718        c2_24       -0.24422473900880126
    y7          c2_32       -0.20628858948359874      c2_48       -0.269996353144311
    y7          budget      1.0                       link7       1.0
    y8          c1_0_8      0.8293676694433804        c1_2_8      0.7061942444168954
    y8          c1_26_8     0.18377732589124907       c1_31_8     0.34128585552991064
    y8          c1_39_8     0.7848575839126226        c2_0        -0.17063233055661967
    y8          c2_2        -0.29380575558310457      c2_26       -0.8162226741087509
    y8          c2_31       -0.6587141444700894       c2_39       -0.21514241608737739
    y8          budget      1.0                       link8       1.0
    y9          c1_4_9      0.8279699711697954        c1_7_9      0.7596631375978826
    y9          c1_29_9     0.6867719493551745        c1_36_9     0.0
    y9          c1_44_9     0.6612230656545883        c2_4        -0.17203002883020452
    y9          c2_7        -0.24033686240211732      c2_29       -0.31322805064482545
    y9          c2_36       -1.0                      c2_44       -0.33877693434541173
    y9          budget      1.0                       link9       1.0
    y10         c1_4_10     0.0                       c1_21_10    0.599414800396099
    y10         c1_43_10    0.7941646532643729        c1_44_10    0.14872650017926625
    y10         c1_46_10    0.29667932568671085       c2_4        -1.0
    y10         c2_21       -0.40058519960390104      c2_43       -0.20583534673562712
    y10         c2_44       -0.8512734998207337       c2_46       -0.7033206743132892
    y10         budget      1.0                       link10      1.0
    y11         c1_0_11     0.6153284122052303        c1_1_11     0.6934677987119563
    y11         c1_3_11     0.7369887737447035        c1_7_11     0.7752453568829523
    y11         c1_29_11    0.557636048512475         c1_30_11    0.5199774557653861
    y11         c1_38_11    0.8149733212066569        c1_40_11    0.0
    y11         c1_47_11    0.48947370775574184       c2_0        -0.38467158779476973
    y11         c2_1        -0.3065322012880437       c2_3        -0.2630112262552965
    y11         c2_7        -0.22475464311704768      c2_29       -0.44236395148752505
    y11         c2_30       -0.4800225442346139       c2_38       -0.18502667879334309
    y11         c2_40       -1.0                      c2_47       -0.5105262922442582
    y11         budget      1.0                       link11      1.0
    y12         c1_0_12     0.6242583245256674        c1_2_12     0.0
    y12         c1_26_12    0.0                       c1_30_12    0.6439135198135946
    y12         c1_31_12    0.0                       c1_37_12    0.16338013781969618
    y12         c2_0        -0.37574167547433257      c2_2        -1.0
    y12         c2_26       -1.0                      c2_30       -0.3560864801864054
    y12         c2_31       -1.0                      c2_37       -0.8366198621803038
    y12         budget      1.0                       link12      1.0
    y13         c1_0_13     0.6792364064296574        c1_26_13    0.8598626868615922
    y13         c1_31_13    0.7605734715676429        c1_39_13    0.0
    y13         c2_0        -0.3207635935703426       c2_26       -0.1401373131384078
    y13         c2_31       -0.23942652843235707      c2_39       -1.0
    y13         budget      1.0                       link13      1.0
    y14         c1_1_14     0.3984699802191022        c1_3_14     0.7334985718296168
    y14         c1_5_14     0.36752621027330934       c1_9_14     0.6955438155653733
    y14         c1_10_14    0.0                       c1_13_14    0.6737857787286643
    y14         c1_14_14    0.49641281568386153       c1_25_14    0.6528446798167806
    y14         c1_27_14    0.28648508357061775       c1_35_14    0.6960333310834413
    y14         c1_38_14    0.4444177914545572        c1_41_14    0.6965001166022631
    y14         c1_45_14    0.7319203807020991        c1_47_14    0.7076577221375735
    y14         c1_49_14    0.5472353863244335        c2_1        -0.6015300197808978
    y14         c2_3        -0.2665014281703833       c2_5        -0.6324737897266907
    y14         c2_9        -0.3044561844346268       c2_10       -1.0
    y14         c2_13       -0.3262142212713357       c2_14       -0.5035871843161385
    y14         c2_25       -0.3471553201832194       c2_27       -0.7135149164293823
    y14         c2_35       -0.30396666891655866      c2_38       -0.5555822085454428
    y14         c2_41       -0.303499883397737        c2_45       -0.2680796192979009
    y14         c2_47       -0.29234227786242645      c2_49       -0.4527646136755665
    y14         budget      1.0                       link14      1.0
    MARKER                'MARKER'                 'INTEND'
    r0          cover       2.0                       c1_0_2      1.0
    r0          c1_0_3      1.0                       c1_0_8      1.0
    r0          c1_0_11     1.0                       c1_0_12     1.0
    r0          c1_0_13     1.0                       c2_0        1.0
    r1          cover       3.0                       c1_1_0      1.0
    r1          c1_1_1      1.0                       c1_1_2      1.0
    r1          c1_1_11     1.0                       c1_1_14     1.0
    r1          c2_1        1.0
    r2          cover       1.0                       c1_2_8      1.0
    r2          c1_2_12     1.0                       c2_2        1.0
    r3          cover       4.0                       c1_3_0      1.0
    r3          c1_3_1      1.0                       c1_3_2      1.0
    r3          c1_3_5      1.0                       c1_3_11     1.0
    r3          c1_3_14     1.0                       c2_3        1.0
    r4          cover       2.0                       c1_4_5      1.0
    r4          c1_4_9      1.0                       c1_4_10     1.0
    r4          c2_4        1.0
    r5          cover       2.0                       c1_5_1      1.0
    r5          c1_5_2      1.0                       c1_5_14     1.0
    r5          c2_5        1.0
    r6          cover       5.0                       c2_6        1.0
    r7          cover       1.0                       c1_7_0      1.0
    r7          c1_7_1      1.0                       c1_7_2      1.0
    r7          c1_7_5      1.0                       c1_7_9      1.0
    r7          c1_7_11     1.0                       c2_7        1.0
    r8          cover       1.0                       c1_8_7      1.0
    r8          c2_8        1.0
    r9          cover       4.0                       c1_9_14     1.0
    r9          c2_9        1.0
    r10         cover       3.0                       c1_10_1     1.0
    r10         c1_10_2     1.0                       c1_10_5     1.0
    r10         c1_10_14    1.0                       c2_10       1.0
    r11         cover       4.0                       c2_11       1.0
    r12         cover       3.0                       c1_12_7     1.0
    r12         c2_12       1.0
    r13         cover       5.0                       c1_13_14    1.0
    r13         c2_13       1.0
    r14         cover       4.0                       c1_14_14    1.0
    r14         c2_14       1.0
    r15         cover       4.0                       c1_15_7     1.0
    r15         c2_15       1.0
    r16         cover       1.0                       c2_16       1.0
    r17         cover       4.0                       c2_17       1.0
    r18         cover       1.0                       c2_18       1.0
    r19         cover       5.0                       c2_19       1.0
    r20         cover       3.0                       c1_20_4     1.0
    r20         c1_20_5     1.0                       c2_20       1.0
    r21         cover       4.0                       c1_21_4     1.0
    r21         c1_21_5     1.0                       c1_21_10    1.0
    r21         c2_21       1.0
    r22         cover       5.0                       c2_22       1.0
    r23         cover       1.0                       c1_23_7     1.0
    r23         c2_23       1.0
    r24         cover       3.0                       c1_24_7     1.0
    r24         c2_24       1.0
    r25         cover       4.0                       c1_25_2     1.0
    r25         c1_25_14    1.0                       c2_25       1.0
    r26         cover       4.0                       c1_26_8     1.0
    r26         c1_26_12    1.0                       c1_26_13    1.0
    r26         c2_26       1.0
    r27         cover       2.0                       c1_27_14    1.0
    r27         c2_27       1.0
    r28         cover       4.0                       c2_28       1.0
    r29         cover       5.0                       c1_29_0     1.0
    r29         c1_29_3     1.0                       c1_29_6     1.0
    r29         c1_29_9     1.0                       c1_29_11    1.0
    r29         c2_29       1.0
    r30         cover       4.0                       c1_30_0     1.0
    r30         c1_30_2     1.0                       c1_30_3     1.0
    r30         c1_30_11    1.0                       c1_30_12    1.0
    r30         c2_30       1.0
    r31         cover       4.0                       c1_31_8     1.0
    r31         c1_31_12    1.0                       c1_31_13    1.0
    r31         c2_31       1.0
    r32         cover       2.0                       c1_32_7     1.0
    r32         c2_32       1.0
    r33         cover       2.0                       c2_33       1.0
    r34         cover       2.0                       c2_34       1.0
    r35         cover       4.0                       c1_35_14    1.0
    r35         c2_35       1.0
    r36         cover       3.0                       c1_36_6     1.0
    r36         c1_36_9     1.0                       c2_36       1.0
    r37         cover       3.0                       c1_37_2     1.0
    r37         c1_37_12    1.0                       c2_37       1.0
    r38         cover       5.0                       c1_38_0     1.0
    r38         c1_38_1     1.0                       c1_38_2     1.0
    r38         c1_38_5     1.0                       c1_38_11    1.0
    r38         c1_38_14    1.0                       c2_38       1.0
    r39         cover       4.0                       c1_39_3     1.0
    r39         c1_39_8     1.0                       c1_39_13    1.0
    r39         c2_39       1.0
    r40         cover       2.0                       c1_40_0     1.0
    r40         c1_40_2     1.0                       c1_40_3     1.0
    r40         c1_40_6     1.0                       c1_40_11    1.0
    r40         c2_40       1.0
    r41         cover       3.0                       c1_41_1     1.0
    r41         c1_41_5     1.0                       c1_41_14    1.0
    r41         c2_41       1.0
    r42         cover       4.0                       c1_42_1     1.0
    r42         c1_42_4     1.0                       c1_42_5     1.0
    r42         c2_42       1.0
    r43         cover       2.0                       c1_43_4     1.0
    r43         c1_43_5     1.0                       c1_43_10    1.0
    r43         c2_43       1.0
    r44         cover       5.0                       c1_44_5     1.0
    r44         c1_44_9     1.0                       c1_44_10    1.0
    r44         c2_44       1.0
    r45         cover       3.0                       c1_45_1     1.0
    r45         c1_45_4     1.0                       c1_45_5     1.0
    r45         c1_45_14    1.0                       c2_45       1.0
    r46         cover       3.0                       c1_46_4     1.0
    r46         c1_46_5     1.0                       c1_46_10    1.0
    r46         c2_46       1.0
    r47         cover       1.0                       c1_47_0     1.0
    r47         c1_47_1     1.0                       c1_47_2     1.0
    r47         c1_47_11    1.0                       c1_47_14    1.0
    r47         c2_47       1.0
    r48         cover       2.0                       c1_48_7     1.0
    r48         c2_48       1.0
    r49         cover       1.0                       c1_49_1     1.0
    r49         c1_49_14    1.0                       c2_49       1.0
RHS
    rhs         cover       31.733864425629058
    rhs         c1_0_2      1.0
    rhs         c1_0_3      1.0
    rhs         c1_0_8      1.0
    rhs         c1_0_11     1.0
    rhs         c1_0_12     1.0
    rhs         c1_0_13     1.0
    rhs         c1_1_0      1.0
    rhs         c1_1_1      1.0
    rhs         c1_1_2      1.0
    rhs         c1_1_11     1.0
    rhs         c1_1_14     1.0
    rhs         c1_2_8      1.0
    rhs         c1_2_12     1.0
    rhs         c1_3_0      1.0
    rhs         c1_3_1      1.0
    rhs         c1_3_2      1.0
    rhs         c1_3_5      1.0
    rhs         c1_3_11     1.0
    rhs         c1_3_14     1.0
    rhs         c1_4_5      1.0
    rhs         c1_4_9      1.0
    rhs         c1_4_10     1.0
    rhs         c1_5_1      1.0
    rhs         c1_5_2      1.0
    rhs         c1_5_14     1.0
    rhs         c1_7_0      1.0
    rhs         c1_7_1      1.0
    rhs         c1_7_2      1.0
    rhs         c1_7_5      1.0
    rhs         c1_7_9      1.0
    rhs         c1_7_11     1.0
    rhs         c1_8_7      1.0
    rhs         c1_9_14     1.0
    rhs         c1_10_1     1.0
    rhs         c1_10_2     1.0
    rhs         c1_10_5     1.0
    rhs         c1_10_14    1.0
    rhs         c1_12_7     1.0
    rhs         c1_13_14    1.0
    rhs         c1_14_14    1.0
    rhs         c1_15_7     1.0
    rhs         c1_20_4     1.0
    rhs         c1_20_5     1.0
    rhs         c1_21_4     1.0
    rhs         c1_21_5     1.0
    rhs         c1_21_10    1.0
    rhs         c1_23_7     1.0
    rhs         c1_24_7     1.0
    rhs         c1_25_2     1.0
    rhs         c1_25_14    1.0
    rhs         c1_26_8     1.0
    rhs         c1_26_12    1.0
    rhs         c1_26_13    1.0
    rhs         c1_27_14    1.0
    rhs         c1_29_0     1.0
    rhs         c1_29_3     1.0
    rhs         c1_29_6     1.0
    rhs         c1_29_9     1.0
    rhs         c1_29_11    1.0
    rhs         c1_30_0     1.0
    rhs         c1_30_2     1.0
    rhs         c1_30_3     1.0
    rhs         c1_30_11    1.0
    rhs         c1_30_12    1.0
    rhs         c1_31_8     1.0
    rhs         c1_31_12    1.0
    rhs         c1_31_13    1.0
    rhs         c1_32_7     1.0
    rhs         c1_35_14    1.0
    rhs         c1_36_6     1.0
    rhs         c1_36_9     1.0
    rhs         c1_37_2     1.0
    rhs         c1_37_12    1.0
    rhs         c1_38_0     1.0
    rhs         c1_38_1     1.0
    rhs         c1_38_2     1.0
    rhs         c1_38_5     1.0
    rhs         c1_38_11    1.0
    rhs         c1_38_14    1.0
    rhs         c1_39_3     1.0
    rhs         c1_39_8     1.0
    rhs         c1_39_13    1.0
    rhs         c1_40_0     1.0
    rhs         c1_40_2     1.0
    rhs         c1_40_3     1.0
    rhs         c1_40_6     1.0
    rhs         c1_40_11    1.0
    rhs         c1_41_1     1.0
    rhs         c1_41_5     1.0
    rhs         c1_41_14    1.0
    rhs         c1_42_1     1.0
    rhs         c1_42_4     1.0
    rhs         c1_42_5     1.0
    rhs         c1_43_4     1.0
    rhs         c1_43_5     1.0
    rhs         c1_43_10    1.0
    rhs         c1_44_5     1.0
    rhs         c1_44_9     1.0
    rhs         c1_44_10    1.0
    rhs         c1_45_1     1.0
    rhs         c1_45_4     1.0
    rhs         c1_45_5     1.0
    rhs         c1_45_14    1.0
    rhs         c1_46_4     1.0
    rhs         c1_46_5     1.0
    rhs         c1_46_10    1.0
    rhs         c1_47_0     1.0
    rhs         c1_47_1     1.0
    rhs         c1_47_2     1.0
    rhs         c1_47_11    1.0
    rhs         c1_47_14    1.0
    rhs         c1_48_7     1.0
    rhs         c1_49_1     1.0
    rhs         c1_49_14    1.0
    rhs         budget      3.0
    rhs         link0       1.0
    rhs         link1       1.0
    rhs         link2       1.0
    rhs         link3       1.0
    rhs         link4       1.0
    rhs         link5       1.0
    rhs         link6       1.0
    rhs         link7       1.0
    rhs         link8       1.0
    rhs         link9       1.0
    rhs         link10      1.0
    rhs         link11      1.0
    rhs         link12      1.0
    rhs         link13      1.0
    rhs         link14      1.0
BOUNDS
 BV bnd       x0
 BV bnd       x1
 BV bnd       x2
 BV bnd       x3
 BV bnd       x4
 BV bnd       x5
 BV bnd       x6
 BV bnd       x7
 BV bnd       x8
 BV bnd       x9
 BV bnd       x10
 BV bnd       x11
 BV bnd       x12
 BV bnd       x13
 BV bnd       x14
 BV bnd       y0
 BV bnd       y1
 BV bnd       y2
 BV bnd       y3
 BV bnd       y4
 BV bnd       y5
 BV bnd       y6
 BV bnd       y7
 BV bnd       y8
 BV bnd       y9
 BV bnd       y10
 BV bnd       y11
 BV bnd       y12
 BV bnd       y13
 BV bnd       y14
 UP bnd       r0          1.0
 UP bnd       r1          1.0
 UP bnd       r2          1.0
 UP bnd       r3          1.0
 UP bnd       r4          1.0
 UP bnd       r5          1.0
 UP bnd       r6          1.0
 UP bnd       r7          1.0
 UP bnd       r8          1.0
 UP bnd       r9          1.0
 UP bnd       r10         1.0
 UP bnd       r11         1.0
 UP bnd       r12         1.0
 UP bnd       r13         1.0
 UP bnd       r14         1.0
 UP bnd       r15         1.0
 UP bnd       r16         1.0
 UP bnd       r17         1.0
 UP bnd       r18         1.0
 UP bnd       r19         1.0
 UP bnd       r20         1.0
 UP bnd       r21         1.0
 UP bnd       r22         1.0
 UP bnd       r23         1.0
 UP bnd       r24         1.0
 UP bnd       r25         1.0
 UP bnd       r26         1.0
 UP bnd       r27         1.0
 UP bnd       r28         1.0
 UP bnd       r29         1.0
 UP bnd       r30         1.0
 UP bnd       r31         1.0
 UP bnd       r32         1.0
 UP bnd       r33         1.0
 UP bnd       r34         1.0
 UP bnd       r35         1.0
 UP bnd       r36         1.0
 UP bnd       r37         1.0
 UP bnd       r38         1.0
 UP bnd       r39         1.0
 UP bnd       r40         1.0
 UP bnd       r41         1.0
 UP bnd       r42         1.0
 UP bnd       r43         1.0
 UP bnd       r44         1.0
 UP bnd       r45         1.0
 UP bnd       r46         1.0
 UP bnd       r47         1.0
 UP bnd       r48         1.0
 UP bnd       r49         1.0
ENDATA
