NAME          mmclbp_m20_n50_s0
ROWS
 N  obj
 L  cover
 L  c1_0_1
 L  c1_0_2
 L  c1_0_14
 L  c1_0_16
 L  c1_2_0
 L  c1_2_1
 L  c1_2_2
 L  c1_2_5
 L  c1_2_9
 L  c1_2_11
 L  c1_2_16
 L  c1_2_18
 L  c1_3_7
 L  c1_4_14
 L  c1_4_16
 L  c1_5_1
 L  c1_5_2
 L  c1_5_5
 L  c1_5_14
 L  c1_5_16
 L  c1_5_18
 L  c1_7_7
 L  c1_8_14
 L  c1_9_14
 L  c1_10_7
 L  c1_15_4
 L  c1_15_5
 L  c1_15_19
 L  c1_16_4
 L  c1_16_5
 L  c1_16_10
 L  c1_16_19
 L  c1_18_7
 L  c1_19_7
 L  c1_20_2
 L  c1_20_14
 L  c1_20_16
 L  c1_21_8
 L  c1_21_12
 L  c1_21_13
 L  c1_21_15
 L  c1_21_17
 L  c1_22_14
 L  c1_24_0
 L  c1_24_3
 L  c1_24_6
 L  c1_24_9
 L  c1_24_11
 L  c1_25_0
 L  c1_25_2
 L  c1_25_3
 L  c1_25_11
 L  c1_25_12
 L  c1_25_15
 L  c1_25_16
 L  c1_26_8
 L  c1_26_12
 L  c1_26_13
 L  c1_26_15
 L  c1_26_17
 L  c1_27_7
 L  c1_30_14
 L  c1_31_6
 L  c1_31_9
 L  c1_32_2
 L  c1_32_12
 L  c1_32_15
 L  c1_32_16
 L  c1_32_17
 L  c1_33_0
 L  c1_33_1
 L  c1_33_2
 L  c1_33_5
 L  c1_33_11
 L  c1_33_14
 L  c1_33_16
 L  c1_33_18
 L  c1_34_3
 L  c1_34_8
 L  c1_34_13
 L  c1_34_15
 L  c1_35_0
 L  c1_35_2
 L  c1_35_3
 L  c1_35_6
 L  c1_35_11
 L  c1_35_15
 L  c1_36_1
 L  c1_36_5
 L  c1_36_14
 L  c1_37_1
 L  c1_37_4
 L  c1_37_5
 L  c1_38_4
 L  c1_38_5
 L  c1_38_10
 L  c1_38_19
 L  c1_39_5
 L  c1_39_9
 L  c1_39_10
 L  c1_39_19
 L  c1_40_1
 L  c1_40_4
 L  c1_40_5
 L  c1_40_14
 L  c1_40_18
 L  c1_41_4
 L  c1_41_5
 L  c1_41_10
 L  c1_41_19
 L  c1_42_0
 L  c1_42_1
 L  c1_42_2
 L  c1_42_11
 L  c1_42_14
 L  c1_42_15
 L  c1_42_16
 L  c1_42_18
 L  c1_43_7
 L  c1_44_1
 L  c1_44_14
 L  c1_45_1
 L  c1_45_5
 L  c1_45_14
 L  c1_45_16
 L  c1_45_18
 L  c1_46_7
 L  c1_47_0
 L  c1_47_1
 L  c1_47_2
 L  c1_47_5
 L  c1_47_11
 L  c1_47_14
 L  c1_47_16
 L  c1_47_18
 L  c1_48_0
 L  c1_48_1
 L  c1_48_2
 L  c1_48_5
 L  c1_48_11
 L  c1_48_14
 L  c1_48_16
 L  c1_48_18
 L  c1_49_1
 L  c1_49_5
 L  c1_49_14
 L  c1_49_16
 L  c1_49_18
 L  c2_0
 L  c2_1
 L  c2_2
 L  c2_3
 L  c2_4
 L  c2_5
 L  c2_6
 L  c2_7
 L  c2_8
 L  c2_9
 L  c2_10
 L  c2_11
 L  c2_12
 L  c2_13
 L  c2_14
 L  c2_15
 L  c2_16
 L  c2_17
 L  c2_18
 L  c2_19
 L  c2_20
 L  c2_21
 L  c2_22
 L  c2_23
 L  c2_24
 L  c2_25
 L  c2_26
 L  c2_27
 L  c2_28
 L  c2_29
 L  c2_30
 L  c2_31
 L  c2_32
 L  c2_33
 L  c2_34
 L  c2_35
 L  c2_36
 L  c2_37
 L  c2_38
 L  c2_39
 L  c2_40
 L  c2_41
 L  c2_42
 L  c2_43
 L  c2_44
 L  c2_45
 L  c2_46
 L  c2_47
 L  c2_48
 L  c2_49
 L  budget
 L  link0
 L  link1
 L  link2
 L  link3
 L  link4
 L  link5
 L  link6
 L  link7
 L  link8
 L  link9
 L  link10
 L  link11
 L  link12
 L  link13
 L  link14
 L  link15
 L  link16
 L  link17
 L  link18
 L  link19
COLUMNS
    MARKER                'MARKER'                 'INTORG'
    x0          obj         1.0                       link0       1.0
    x1          obj         1.0                       link1       1.0
    x2          obj         1.0                       link2       1.0
    x3          obj         1.0                       link3       1.0
    x4          obj         1.0                       link4       1.0
    x5          obj         1.0                       link5       1.0
    x6          obj         1.0                       link6       1.0
    x7          obj         1.0                       link7       1.0
    x8          obj         1.0                       link8       1.0
    x9          obj         1.0                       link9       1.0
    x10         obj         1.0                       link10      1.0
    x11         obj         1.0                       link11      1.0
    x12         obj         1.0                       link12      1.0
    x13         obj         1.0                       link13      1.0
    x14         obj         1.0                       link14      1.0
    x15         obj         1.0                       link15      1.0
    x16         obj         1.0                       link16      1.0
    x17         obj         1.0                       link17      1.0
    x18         obj         1.0                       link18      1.0
    x19         obj         1.0                       link19      1.0
    y0          c1_2_0      0.0                       c1_24_0     0.7098299806519184
    y0          c1_25_0     0.7828670880221626        c1_33_0     0.2133472538554061
    y0          c1_35_0     0.38745611221615806       c1_42_0     0.3844637122913236
    y0          c1_47_0     0.0                       c1_48_0     0.0
    y0          c2_2        -1.0                      c2_24       -0.29017001934808156
    y0          c2_25       -0.2171329119778373       c2_33       -0.7866527461445939
    y0          c2_35       -0.612543887783842        c2_42       -0.6155362877086764
    y0          c2_47       -1.0                      c2_48       -1.0
    y0          budget      1.0                       link0       1.0
    y1          c1_0_1      0.8634937056524671        c1_2_1      0.11003890598023747
    y1          c1_5_1      0.0                       c1_33_1     0.0
    y1          c1_36_1     0.8626380981797919        c1_37_1     0.8458198806890633
    y1          c1_40_1     0.0                       c1_42_1     0.5673400184537492
    y1          c1_44_1     0.8530842099552206        c1_45_1     0.0
    y1          c1_47_1     0.0                       c1_48_1     0.0
    y1          c1_49_1     0.0                       c2_0        -0.13650629434753292
    y1          c2_2        -0.8899610940197625       c2_5        -1.0
    y1          c2_33       -1.0                      c2_36       -0.13736190182020816
    y1          c2_37       -0.15418011931093673      c2_40       -1.0
    y1          c2_42       -0.4326599815462508       c2_44       -0.14691579004477942
    y1          c2_45       -1.0                      c2_47       -1.0
    y1          c2_48       -1.0                      c2_49       -1.0
    y1          budget      1.0                       link1       1.0
    y2          c1_0_2      0.7212282354667673        c1_2_2      0.8109073347081013
    y2          c1_5_2      0.8360012059846277        c1_20_2     0.8378040501942572
    y2          c1_25_2     0.0                       c1_32_2     0.5614919991378621
    y2          c1_33_2     0.5308320022174063        c1_35_2     0.6423687446167691
    y2          c1_42_2     0.0                       c1_47_2     0.29157189588400556
    y2          c1_48_2     0.23103721298052715       c2_0        -0.2787717645332327
    y2          c2_2        -0.1890926652918987       c2_5        -0.1639987940153723
    y2          c2_20       -0.16219594980574287      c2_25       -1.0
    y2          c2_32       -0.4385080008621379       c2_33       -0.46916799778259366
    y2          c2_35       -0.35763125538323093      c2_42       -1.0
    y2          c2_47       -0.7084281041159944       c2_48       -0.7689627870194728
    y2          budget      1.0                       link2       1.0
    y3          c1_24_3     0.13959987933553208       c1_25_3     0.8362875316236981
    y3          c1_34_3     0.7394753381392907        c1_35_3     0.0
    y3          c2_24       -0.8604001206644679       c2_25       -0.16371246837630196
    y3          c2_34       -0.26052466186070933      c2_35       -1.0
    y3          budget      1.0                       link3       1.0
    y4          c1_15_4     0.0                       c1_16_4     0.7346927512016077
    y4          c1_37_4     0.22624448850986123       c1_38_4     0.703440983457345
    y4          c1_40_4     0.8632235026408075        c1_41_4     0.8519023433867706
    y4          c2_15       -1.0                      c2_16       -0.26530724879839235
    y4          c2_37       -0.7737555114901388       c2_38       -0.2965590165426551
    y4          c2_40       -0.13677649735919253      c2_41       -0.14809765661322938
    y4          budget      1.0                       link4       1.0
    y5          c1_2_5      0.5658610600743565        c1_5_5      0.7957367967966154
    y5          c1_15_5     0.5993391162550856        c1_16_5     0.6322148138370098
    y5          c1_33_5     0.655285560670164         c1_36_5     0.8240298909683283
    y5          c1_37_5     0.013161985827966127      c1_38_5     0.0
    y5          c1_39_5     0.551291018903837         c1_40_5     0.0
    y5          c1_41_5     0.6356933470132475        c1_45_5     0.6348698525953111
    y5          c1_47_5     0.7663362040789998        c1_48_5     0.8273403971866494
    y5          c1_49_5     0.42548410560165173       c2_2        -0.43413893992564345
    y5          c2_5        -0.2042632032033847       c2_15       -0.40066088374491443
    y5          c2_16       -0.3677851861629902       c2_33       -0.344714439329836
    y5          c2_36       -0.17597010903167165      c2_37       -0.9868380141720339
    y5          c2_38       -1.0                      c2_39       -0.448708981096163
    y5          c2_40       -1.0                      c2_41       -0.36430665298675247
    y5          c2_45       -0.3651301474046889       c2_47       -0.23366379592100014
    y5          c2_48       -0.17265960281335058      c2_49       -0.5745158943983483
    y5          budget      1.0                       link5       1.0
    y6          c1_24_6     0.0                       c1_31_6     0.43255891368519195
    y6          c1_35_6     0.15474696924275955       c2_24       -1.0
    y6          c2_31       -0.567441086314808        c2_35       -0.8452530307572405
    y6          budget      1.0                       link6       1.0
    y7          c1_3_7      0.1665656425349623        c1_7_7      0.2939037735219331
    y7          c1_10_7     0.0                       c1_18_7     0.703306409747282
    y7          c1_19_7     0.7557752609911987        c1_27_7     0.7937114105164013
    y7          c1_43_7     0.730003646855689         c1_46_7     0.7305837845811669
    y7          c2_3        -0.8334343574650377       c2_7        -0.7060962264780669
    y7          c2_10       -1.0                      c2_18       -0.296693590252718
    y7          c2_19       -0.24422473900880126      c2_27       -0.20628858948359874
    y7          c2_43       -0.269996353144311        c2_46       -0.26941621541883304
    y7          budget      1.0                       link7       1.0
    y8          c1_21_8     0.18377732589124907       c1_26_8     0.34128585552991064
    y8          c1_34_8     0.7848575839126226        c2_21       -0.8162226741087509
    y8          c2_26       -0.6587141444700894       c2_34       -0.21514241608737739
    y8          budget      1.0                       link8       1.0
    y9          c1_2_9      0.7596631375978826        c1_24_9     0.6867719493551745
    y9          c1_31_9     0.0                       c1_39_9     0.6612230656545883
    y9          c2_2        -0.24033686240211732      c2_24       -0.31322805064482545
    y9          c2_31       -1.0                      c2_39       -0.33877693434541173
    y9          budget      1.0                       link9       1.0
    y10         c1_16_10    0.599414800396099         c1_38_10    0.7941646532643729
    y10         c1_39_10    0.14872650017926625       c1_41_10    0.29667932568671085
    y10         c2_16       -0.40058519960390104      c2_38       -0.20583534673562712
    y10         c2_39       -0.8512734998207337       c2_41       -0.7033206743132892
    y10         budget      1.0                       link10      1.0
    y11         c1_2_11     0.7752453568829523        c1_24_11    0.557636048512475
    y11         c1_25_11    0.5199774557653861        c1_33_11    0.8149733212066569
    y11         c1_35_11    0.0                       c1_42_11    0.48947370775574184
    y11         c1_47_11    0.7212324821745175        c1_48_11    0.4242372869318245
    y11         c2_2        -0.22475464311704768      c2_24       -0.44236395148752505
    y11         c2_25       -0.4800225442346139       c2_33       -0.18502667879334309
    y11         c2_35       -1.0                      c2_42       -0.5105262922442582
    y11         c2_47       -0.2787675178254824       c2_48       -0.5757627130681755
    y11         budget      1.0                       link11      1.0
    y12         c1_21_12    0.0                       c1_25_12    0.6439135198135946
    y12         c1_26_12    0.0                       c1_32_12    0.16338013781969618
    y12         c2_21       -1.0                      c2_25       -0.3560864801864054
    y12         c2_26       -1.0                      c2_32       -0.8366198621803038
    y12         budget      1.0                       link12      1.0
    y13         c1_21_13    0.8598626868615922        c1_26_13    0.7605734715676429
    y13         c1_34_13    0.0                       c2_21       -0.1401373131384078
    y13         c2_26       -0.23942652843235707      c2_34       -1.0
    y13         budget      1.0                       link13      1.0
    y14         c1_0_14     0.36752621027330934       c1_4_14     0.6955438155653733
    y14         c1_5_14     0.0                       c1_8_14     0.6737857787286643
    y14         c1_9_14     0.49641281568386153       c1_20_14    0.6528446798167806
    y14         c1_22_14    0.28648508357061775       c1_30_14    0.6960333310834413
    y14         c1_33_14    0.4444177914545572        c1_36_14    0.6965001166022631
    y14         c1_40_14    0.7319203807020991        c1_42_14    0.7076577221375735
    y14         c1_44_14    0.5472353863244335        c1_45_14    0.0
    y14         c1_47_14    0.5228537318403668        c1_48_14    0.8105527104199677
    y14         c1_49_14    0.0                       c2_0        -0.6324737897266907
    y14         c2_4        -0.3044561844346268       c2_5        -1.0
    y14         c2_8        -0.3262142212713357       c2_9        -0.5035871843161385
    y14         c2_20       -0.3471553201832194       c2_22       -0.7135149164293823
    y14         c2_30       -0.30396666891655866      c2_33       -0.5555822085454428
    y14         c2_36       -0.303499883397737        c2_40       -0.2680796192979009
    y14         c2_42       -0.29234227786242645      c2_44       -0.4527646136755665
    y14         c2_45       -1.0                      c2_47       -0.4771462681596332
    y14         c2_48       -0.1894472895800323       c2_49       -1.0
    y14         budget      1.0                       link14      1.0
    y15         c1_21_15    0.7125402837230264        c1_25_15    0.0
    y15         c1_26_15    0.1584890666216997        c1_32_15    0.6249086553456406
    y15         c1_34_15    0.5271829048066894        c1_35_15    0.6112338547843452
    y15         c1_42_15    0.7703100994773833        c2_21       -0.28745971627697364
    y15         c2_25       -1.0                      c2_26       -0.8415109333783003
    y15         c2_32       -0.37509134465435945      c2_34       -0.4728170951933106
    y15         c2_35       -0.3887661452156548       c2_42       -0.22968990052261676
    y15         budget      1.0                       link15      1.0
    y16         c1_0_16     0.36027256512130046       c1_2_16     0.7794359238767066
    y16         c1_4_16     0.8220678731531741        c1_5_16     0.44685736307425805
    y16         c1_20_16    0.6689072372127732        c1_25_16    0.41857096926382464
    y16         c1_32_16    0.6714657552687285        c1_33_16    0.038420790095506696
    y16         c1_42_16    0.0                       c1_45_16    0.7008674477868048
    y16         c1_47_16    0.0                       c1_48_16    0.16597654586097077
    y16         c1_49_16    0.7953722020798478        c2_0        -0.6397274348786995
    y16         c2_2        -0.22056407612329348      c2_4        -0.17793212684682594
    y16         c2_5        -0.553142636925742        c2_20       -0.33109276278722677
    y16         c2_25       -0.5814290307361754       c2_32       -0.32853424473127146
    y16         c2_33       -0.9615792099044933       c2_42       -1.0
    y16         c2_45       -0.29913255221319524      c2_47       -1.0
    y16         c2_48       -0.8340234541390292       c2_49       -0.20462779792015218
    y16         budget      1.0                       link16      1.0
    y17         c1_21_17    0.0                       c1_26_17    0.22162252784632153
    y17         c1_32_17    0.7780074036338795        c2_21       -1.0
    y17         c2_26       -0.7783774721536785       c2_32       -0.2219925963661204
    y17         budget      1.0                       link17      1.0
    y18         c1_2_18     0.0                       c1_5_18     0.5266055399920528
    y18         c1_33_18    0.0                       c1_40_18    0.3472702879780226
    y18         c1_42_18    0.563092372339466         c1_45_18    0.5612720905688563
    y18         c1_47_18    0.0                       c1_48_18    0.0
    y18         c1_49_18    0.5711753020370234        c2_2        -1.0
    y18         c2_5        -0.4733944600079471       c2_33       -1.0
    y18         c2_40       -0.6527297120219774       c2_42       -0.43690762766053404
    y18         c2_45       -0.4387279094311437       c2_47       -1.0
    y18         c2_48       -1.0                      c2_49       -0.42882469796297656
    y18         budget      1.0                       link18      1.0
    y19         c1_15_19    0.7091550000250655        c1_16_19    0.0
    y19         c1_38_19    0.0                       c1_39_19    0.0
    y19         c1_41_19    0.0                       c2_15       -0.2908449999749345
    y19         c2_16       -1.0                      c2_38       -1.0
    y19         c2_39       -1.0                      c2_41       -1.0
    y19         budget      1.0                       link19      1.0
    MARKER                'MARKER'                 'INTEND'
    r0          cover       4.0                       c1_0_1      1.0
    r0          c1_0_2      1.0                       c1_0_14     1.0
    r0          c1_0_16     1.0                       c2_0        1.0
    r1          cover       3.0                       c2_1        1.0
    r2          cover       5.0                       c1_2_0      1.0
    r2          c1_2_1      1.0                       c1_2_2      1.0
    r2          c1_2_5      1.0                       c1_2_9      1.0
    r2          c1_2_11     1.0                       c1_2_16     1.0
    r2          c1_2_18     1.0                       c2_2        1.0
    r3          cover       4.0                       c1_3_7      1.0
    r3          c2_3        1.0
    r4          cover       4.0                       c1_4_14     1.0
    r4          c1_4_16     1.0                       c2_4        1.0
    r5          cover       1.0                       c1_5_1      1.0
    r5          c1_5_2      1.0                       c1_5_5      1.0
    r5          c1_5_14     1.0                       c1_5_16     1.0
    r5          c1_5_18     1.0                       c2_5        1.0
    r6          cover       4.0                       c2_6        1.0
    r7          cover       1.0                       c1_7_7      1.0
    r7          c2_7        1.0
    r8          cover       5.0                       c1_8_14     1.0
    r8          c2_8        1.0
    r9          cover       3.0                       c1_9_14     1.0
    r9          c2_9        1.0
    r10         cover       4.0                       c1_10_7     1.0
    r10         c2_10       1.0
    r11         cover       5.0                       c2_11       1.0
    r12         cover       1.0                       c2_12       1.0
    r13         cover       3.0                       c2_13       1.0
    r14         cover       4.0                       c2_14       1.0
    r15         cover       4.0                       c1_15_4     1.0
    r15         c1_15_5     1.0                       c1_15_19    1.0
    r15         c2_15       1.0
    r16         cover       2.0                       c1_16_4     1.0
    r16         c1_16_5     1.0                       c1_16_10    1.0
    r16         c1_16_19    1.0                       c2_16       1.0
    r17         cover       4.0                       c2_17       1.0
    r18         cover       5.0                       c1_18_7     1.0
    r18         c2_18       1.0
    r19         cover       4.0                       c1_19_7     1.0
    r19         c2_19       1.0
    r20         cover       4.0                       c1_20_2     1.0
    r20         c1_20_14    1.0                       c1_20_16    1.0
    r20         c2_20       1.0
    r21         cover       2.0                       c1_21_8     1.0
    r21         c1_21_12    1.0                       c1_21_13    1.0
    r21         c1_21_15    1.0                       c1_21_17    1.0
    r21         c2_21       1.0
    r22         cover       2.0                       c1_22_14    1.0
    r22         c2_22       1.0
    r23         cover       2.0                       c2_23       1.0
    r24         cover       4.0                       c1_24_0     1.0
    r24         c1_24_3     1.0                       c1_24_6     1.0
    r24         c1_24_9     1.0                       c1_24_11    1.0
    r24         c2_24       1.0
    r25         cover       3.0                       c1_25_0     1.0
    r25         c1_25_2     1.0                       c1_25_3     1.0
    r25         c1_25_11    1.0                       c1_25_12    1.0
    r25         c1_25_15    1.0                       c1_25_16    1.0
    r25         c2_25       1.0
    r26         cover       3.0                       c1_26_8     1.0
    r26         c1_26_12    1.0                       c1_26_13    1.0
    r26         c1_26_15    1.0                       c1_26_17    1.0
    r26         c2_26       1.0
    r27         cover       5.0                       c1_27_7     1.0
    r27         c2_27       1.0
    r28         cover       4.0                       c2_28       1.0
    r29         cover       2.0                       c2_29       1.0
    r30         cover       3.0                       c1_30_14    1.0
    r30         c2_30       1.0
    r31         cover       4.0                       c1_31_6     1.0
    r31         c1_31_9     1.0                       c2_31       1.0
    r32         cover       2.0                       c1_32_2     1.0
    r32         c1_32_12    1.0                       c1_32_15    1.0
    r32         c1_32_16    1.0                       c1_32_17    1.0
    r32         c2_32       1.0
    r33         cover       5.0                       c1_33_0     1.0
    r33         c1_33_1     1.0                       c1_33_2     1.0
    r33         c1_33_5     1.0                       c1_33_11    1.0
    r33         c1_33_14    1.0                       c1_33_16    1.0
    r33         c1_33_18    1.0                       c2_33       1.0
    r34         cover       3.0                       c1_34_3     1.0
    r34         c1_34_8     1.0                       c1_34_13    1.0
    r34         c1_34_15    1.0                       c2_34       1.0
    r35         cover       3.0                       c1_35_0     1.0
    r35         c1_35_2     1.0                       c1_35_3     1.0
    r35         c1_35_6     1.0                       c1_35_11    1.0
    r35         c1_35_15    1.0                       c2_35       1.0
    r36         cover       1.0                       c1_36_1     1.0
    r36         c1_36_5     1.0                       c1_36_14    1.0
    r36         c2_36       1.0
    r37         cover       2.0                       c1_37_1     1.0
    r37         c1_37_4     1.0                       c1_37_5     1.0
    r37         c2_37       1.0
    r38         cover       1.0                       c1_38_4     1.0
    r38         c1_38_5     1.0                       c1_38_10    1.0
    r38         c1_38_19    1.0                       c2_38       1.0
    r39         cover       5.0                       c1_39_5     1.0
    r39         c1_39_9     1.0                       c1_39_10    1.0
    r39         c1_39_19    1.0                       c2_39       1.0
    r40         cover       1.0                       c1_40_1     1.0
    r40         c1_40_4     1.0                       c1_40_5     1.0
    r40         c1_40_14    1.0                       c1_40_18    1.0
    r40         c2_40       1.0
    r41         cover       4.0                       c1_41_4     1.0
    r41         c1_41_5     1.0                       c1_41_10    1.0
    r41         c1_41_19    1.0                       c2_41       1.0
    r42         cover       3.0                       c1_42_0     1.0
    r42         c1_42_1     1.0                       c1_42_2     1.0
    r42         c1_42_11    1.0                       c1_42_14    1.0
    r42         c1_42_15    1.0                       c1_42_16    1.0
    r42         c1_42_18    1.0                       c2_42       1.0
    r43         cover       1.0                       c1_43_7     1.0
    r43         c2_43       1.0
    r44         cover       1.0                       c1_44_1     1.0
    r44         c1_44_14    1.0                       c2_44       1.0
    r45         cover       2.0                       c1_45_1     1.0
    r45         c1_45_5     1.0                       c1_45_14    1.0
    r45         c1_45_16    1.0                       c1_45_18    1.0
    r45         c2_45       1.0
    r46         cover       2.0                       c1_46_7     1.0
    r46         c2_46       1.0
    r47         cover       1.0                       c1_47_0     1.0
    r47         c1_47_1     1.0                       c1_47_2     1.0
    r47         c1_47_5     1.0                       c1_47_11    1.0
    r47         c1_47_14    1.0                       c1_47_16    1.0
    r47         c1_47_18    1.0                       c2_47       1.0
    r48         cover       4.0                       c1_48_0     1.0
    r48         c1_48_1     1.0                       c1_48_2     1.0
    r48         c1_48_5     1.0                       c1_48_11    1.0
    r48         c1_48_14    1.0                       c1_48_16    1.0
    r48         c1_48_18    1.0                       c2_48       1.0
    r49         cover       1.0                       c1_49_1     1.0
    r49         c1_49_5     1.0                       c1_49_14    1.0
    r49         c1_49_16    1.0                       c1_49_18    1.0
    r49         c2_49       1.0
RHS
    rhs         cover       39.35104265239338
    rhs         c1_0_1      1.0
    rhs         c1_0_2      1.0
    rhs         c1_0_14     1.0
    rhs         c1_0_16     1.0
    rhs         c1_2_0      1.0
    rhs         c1_2_1      1.0
    rhs         c1_2_2      1.0
    rhs         c1_2_5      1.0
    rhs         c1_2_9      1.0
    rhs         c1_2_11     1.0
    rhs         c1_2_16     1.0
    rhs         c1_2_18     1.0
    rhs         c1_3_7      1.0
    rhs         c1_4_14     1.0
    rhs         c1_4_16     1.0
    rhs         c1_5_1      1.0
    rhs         c1_5_2      1.0
    rhs         c1_5_5      1.0
    rhs         c1_5_14     1.0
    rhs         c1_5_16     1.0
    rhs         c1_5_18     1.0
    rhs         c1_7_7      1.0
    rhs         c1_8_14     1.0
    rhs         c1_9_14     1.0
    rhs         c1_10_7     1.0
    rhs         c1_15_4     1.0
    rhs         c1_15_5     1.0
    rhs         c1_15_19    1.0
    rhs         c1_16_4     1.0
    rhs         c1_16_5     1.0
    rhs         c1_16_10    1.0
    rhs         c1_16_19    1.0
    rhs         c1_18_7     1.0
    rhs         c1_19_7     1.0
    rhs         c1_20_2     1.0
    rhs         c1_20_14    1.0
    rhs         c1_20_16    1.0
    rhs         c1_21_8     1.0
    rhs         c1_21_12    1.0
    rhs         c1_21_13    1.0
    rhs         c1_21_15    1.0
    rhs         c1_21_17    1.0
    rhs         c1_22_14    1.0
    rhs         c1_24_0     1.0
    rhs         c1_24_3     1.0
    rhs         c1_24_6     1.0
    rhs         c1_24_9     1.0
    rhs         c1_24_11    1.0
    rhs         c1_25_0     1.0
    rhs         c1_25_2     1.0
    rhs         c1_25_3     1.0
    rhs         c1_25_11    1.0
    rhs         c1_25_12    1.0
    rhs         c1_25_15    1.0
    rhs         c1_25_16    1.0
    rhs         c1_26_8     1.0
    rhs         c1_26_12    1.0
    rhs         c1_26_13    1.0
    rhs         c1_26_15    1.0
    rhs         c1_26_17    1.0
    rhs         c1_27_7     1.0
    rhs         c1_30_14    1.0
    rhs         c1_31_6     1.0
    rhs         c1_31_9     1.0
    rhs         c1_32_2     1.0
    rhs         c1_32_12    1.0
    rhs         c1_32_15    1.0
    rhs         c1_32_16    1.0
    rhs         c1_32_17    1.0
    rhs         c1_33_0     1.0
    rhs         c1_33_1     1.0
    rhs         c1_33_2     1.0
    rhs         c1_33_5     1.0
    rhs         c1_33_11    1.0
    rhs         c1_33_14    1.0
    rhs         c1_33_16    1.0
    rhs         c1_33_18    1.0
    rhs         c1_34_3     1.0
    rhs         c1_34_8     1.0
    rhs         c1_34_13    1.0
    rhs         c1_34_15    1.0
    rhs         c1_35_0     1.0
    rhs         c1_35_2     1.0
    rhs         c1_35_3     1.0
    rhs         c1_35_6     1.0
    rhs         c1_35_11    1.0
    rhs         c1_35_15    1.0
    rhs         c1_36_1     1.0
    rhs         c1_36_5     1.0
    rhs         c1_36_14    1.0
    rhs         c1_37_1     1.0
    rhs         c1_37_4     1.0
    rhs         c1_37_5     1.0
    rhs         c1_38_4     1.0
    rhs         c1_38_5     1.0
    rhs         c1_38_10    1.0
    rhs         c1_38_19    1.0
    rhs         c1_39_5     1.0
    rhs         c1_39_9     1.0
    rhs         c1_39_10    1.0
    rhs         c1_39_19    1.0
    rhs         c1_40_1     1.0
    rhs         c1_40_4     1.0
    rhs         c1_40_5     1.0
    rhs         c1_40_14    1.0
    rhs         c1_40_18    1.0
    rhs         c1_41_4     1.0
    rhs         c1_41_5     1.0
    rhs         c1_41_10    1.0
    rhs         c1_41_19    1.0
    rhs         c1_42_0     1.0
    rhs         c1_42_1     1.0
    rhs         c1_42_2     1.0
    rhs         c1_42_11    1.0
    rhs         c1_42_14    1.0
    rhs         c1_42_15    1.0
    rhs         c1_42_16    1.0
    rhs         c1_42_18    1.0
    rhs         c1_43_7     1.0
    rhs         c1_44_1     1.0
    rhs         c1_44_14    1.0
    rhs         c1_45_1     1.0
    rhs         c1_45_5     1.0
    rhs         c1_45_14    1.0
    rhs         c1_45_16    1.0
    rhs         c1_45_18    1.0
    rhs         c1_46_7     1.0
    rhs         c1_47_0     1.0
    rhs         c1_47_1     1.0
    rhs         c1_47_2     1.0
    rhs         c1_47_5     1.0
    rhs         c1_47_11    1.0
    rhs         c1_47_14    1.0
    rhs         c1_47_16    1.0
    rhs         c1_47_18    1.0
    rhs         c1_48_0     1.0
    rhs         c1_48_1     1.0
    rhs         c1_48_2     1.0
    rhs         c1_48_5     1.0
    rhs         c1_48_11    1.0
    rhs         c1_48_14    1.0
    rhs         c1_48_16    1.0
    rhs         c1_48_18    1.0
    rhs         c1_49_1     1.0
    rhs         c1_49_5     1.0
    rhs         c1_49_14    1.0
    rhs         c1_49_16    1.0
    rhs         c1_49_18    1.0
    rhs         budget      4.0
    rhs         link0       1.0
    rhs         link1       1.0
    rhs         link2       1.0
    rhs         link3       1.0
    rhs         link4       1.0
    rhs         link5       1.0
    rhs         link6       1.0
    rhs         link7       1.0
    rhs         link8       1.0
    rhs         link9       1.0
    rhs         link10      1.0
    rhs         link11      1.0
    rhs         link12      1.0
    rhs         link13      1.0
    rhs         link14      1.0
    rhs         link15      1.0
    rhs         link16      1.0
    rhs         link17      1.0
    rhs         link18      1.0
    rhs         link19      1.0
BOUNDS
 BV bnd       x0
 BV bnd       x1
 BV bnd       x2
 BV bnd       x3
 BV bnd       x4
 BV bnd       x5
 BV bnd       x6
 BV bnd       x7
 BV bnd       x8
 BV bnd       x9
 BV bnd       x10
 BV bnd       x11
 BV bnd       x12
 BV bnd       x13
 BV bnd       x14
 BV bnd       x15
 BV bnd       x16
 BV bnd       x17
 BV bnd       x18
 BV bnd       x19
 BV bnd       y0
 BV bnd       y1
 BV bnd       y2
 BV bnd       y3
 BV bnd       y4
 BV bnd       y5
 BV bnd       y6
 BV bnd       y7
 BV bnd       y8
 BV bnd       y9
 BV bnd       y10
 BV bnd       y11
 BV bnd       y12
 BV bnd       y13
 BV bnd       y14
 BV bnd       y15
 BV bnd       y16
 BV bnd       y17
 BV bnd       y18
 BV bnd       y19
 UP bnd       r0          1.0
 UP bnd       r1          1.0
 UP bnd       r2          1.0
 UP bnd       r3          1.0
 UP bnd       r4          1.0
 UP bnd       r5          1.0
 UP bnd       r6          1.0
 UP bnd       r7          1.0
 UP bnd       r8          1.0
 UP bnd       r9          1.0
 UP bnd       r10         1.0
 UP bnd       r11         1.0
 UP bnd       r12         1.0
 UP bnd       r13         1.0
 UP bnd       r14         1.0
 UP bnd       r15         1.0
 UP bnd       r16         1.0
 UP bnd       r17         1.0
 UP bnd       r18         1.0
 UP bnd       r19         1.0
 UP bnd       r20         1.0
 UP bnd       r21         1.0
 UP bnd       r22         1.0
 UP bnd       r23         1.0
 UP bnd       r24         1.0
 UP bnd       r25         1.0
 UP bnd       r26         1.0
 UP bnd       r27         1.0
 UP bnd       r28         1.0
 UP bnd       r29         1.0
 UP bnd       r30         1.0
 UP bnd       r31         1.0
 UP bnd       r32         1.0
 UP bnd       r33         1.0
 UP bnd       r34         1.0
 UP bnd       r35         1.0
 UP bnd       r36         1.0
 UP bnd       r37         1.0
 UP bnd       r38         1.0
 UP bnd       r39         1.0
 UP bnd       r40         1.0
 UP bnd       r41         1.0
 UP bnd       r42         1.0
 UP bnd       r43         1.0
 UP bnd       r44         1.0
 UP bnd       r45         1.0
 UP bnd       r46         1.0
 UP bnd       r47         1.0
 UP bnd       r48         1.0
 UP bnd       r49         1.0
ENDATA
