NAME          mmclbp_m10_n50_s0
ROWS
 N  obj
 L  cover
 L  c1_0_9
 L  c1_1_0
 L  c1_1_2
 L  c1_1_3
 L  c1_1_6
 L  c1_2_8
 L  c1_3_8
 L  c1_4_1
 L  c1_4_2
 L  c1_5_2
 L  c1_5_3
 L  c1_5_8
 L  c1_6_0
 L  c1_6_1
 L  c1_6_2
 L  c1_7_8
 L  c1_8_0
 L  c1_8_1
 L  c1_8_2
 L  c1_8_5
 L  c1_9_5
 L  c1_9_9
 L  c1_10_1
 L  c1_10_2
 L  c1_12_0
 L  c1_12_1
 L  c1_12_2
 L  c1_12_5
 L  c1_12_9
 L  c1_13_7
 L  c1_15_1
 L  c1_15_2
 L  c1_15_5
 L  c1_17_7
 L  c1_20_7
 L  c1_25_4
 L  c1_25_5
 L  c1_26_4
 L  c1_26_5
 L  c1_28_7
 L  c1_29_7
 L  c1_30_2
 L  c1_31_8
 L  c1_34_0
 L  c1_34_3
 L  c1_34_6
 L  c1_34_9
 L  c1_35_0
 L  c1_35_2
 L  c1_35_3
 L  c1_36_8
 L  c1_37_7
 L  c1_41_6
 L  c1_41_9
 L  c1_42_2
 L  c1_43_0
 L  c1_43_1
 L  c1_43_2
 L  c1_43_5
 L  c1_44_3
 L  c1_44_8
 L  c1_45_0
 L  c1_45_2
 L  c1_45_3
 L  c1_45_6
 L  c1_46_1
 L  c1_46_5
 L  c1_47_1
 L  c1_47_4
 L  c1_47_5
 L  c1_48_4
 L  c1_48_5
 L  c1_49_5
 L  c1_49_9
 L  c2_0
 L  c2_1
 L  c2_2
 L  c2_3
 L  c2_4
 L  c2_5
 L  c2_6
 L  c2_7
 L  c2_8
 L  c2_9
 L  c2_10
 L  c2_11
 L  c2_12
 L  c2_13
 L  c2_14
 L  c2_15
 L  c2_16
 L  c2_17
 L  c2_18
 L  c2_19
 L  c2_20
 L  c2_21
 L  c2_22
 L  c2_23
 L  c2_24
 L  c2_25
 L  c2_26
 L  c2_27
 L  c2_28
 L  c2_29
 L  c2_30
 L  c2_31
 L  c2_32
 L  c2_33
 L  c2_34
 L  c2_35
 L  c2_36
 L  c2_37
 L  c2_38
 L  c2_39
 L  c2_40
 L  c2_41
 L  c2_42
 L  c2_43
 L  c2_44
 L  c2_45
 L  c2_46
 L  c2_47
 L  c2_48
 L  c2_49
 L  budget
 L  link0
 L  link1
 L  link2
 L  link3
 L  link4
 L  link5
 L  link6
 L  link7
 L  link8
 L  link9
COLUMNS
    MARKER                'MARKER'                 'INTORG'
    x0          obj         1.0                       link0       1.0
    x1          obj         1.0                       link1       1.0
    x2          obj         1.0                       link2       1.0
    x3          obj         1.0                       link3       1.0
    x4          obj         1.0                       link4       1.0
    x5          obj         1.0                       link5       1.0
    x6          obj         1.0                       link6       1.0
    x7          obj         1.0                       link7       1.0
    x8          obj         1.0                       link8       1.0
    x9          obj         1.0                       link9       1.0
    y0          c1_1_0      0.0                       c1_6_0      0.4530639734382038
    y0          c1_8_0      0.0                       c1_12_0     0.0
    y0          c1_34_0     0.7098299806519184        c1_35_0     0.7828670880221626
    y0          c1_43_0     0.2133472538554061        c1_45_0     0.38745611221615806
    y0          c2_1        -1.0                      c2_6        -0.5469360265617962
    y0          c2_8        -1.0                      c2_12       -1.0
    y0          c2_34       -0.29017001934808156      c2_35       -0.2171329119778373
    y0          c2_43       -0.7866527461445939       c2_45       -0.612543887783842
    y0          budget      1.0                       link0       1.0
    y1          c1_4_1      0.2589536991229813        c1_6_1      0.20338799065512658
    y1          c1_8_1      0.0                       c1_10_1     0.8634937056524671
    y1          c1_12_1     0.11003890598023747       c1_15_1     0.0
    y1          c1_43_1     0.0                       c1_46_1     0.8626380981797919
    y1          c1_47_1     0.8458198806890633        c2_4        -0.7410463008770187
    y1          c2_6        -0.7966120093448734       c2_8        -1.0
    y1          c2_10       -0.13650629434753292      c2_12       -0.8899610940197625
    y1          c2_15       -1.0                      c2_43       -1.0
    y1          c2_46       -0.13736190182020816      c2_47       -0.15418011931093673
    y1          budget      1.0                       link1       1.0
    y2          c1_1_2      0.09308915946606211       c1_4_2      0.8293710723849455
    y2          c1_5_2      0.6556702512529178        c1_6_2      0.0
    y2          c1_8_2      0.5767528842709           c1_10_2     0.7212282354667673
    y2          c1_12_2     0.8109073347081013        c1_15_2     0.8360012059846277
    y2          c1_30_2     0.8378040501942572        c1_35_2     0.0
    y2          c1_42_2     0.5614919991378621        c1_43_2     0.5308320022174063
    y2          c1_45_2     0.6423687446167691        c2_1        -0.9069108405339379
    y2          c2_4        -0.17062892761505455      c2_5        -0.3443297487470823
    y2          c2_6        -1.0                      c2_8        -0.4232471157291
    y2          c2_10       -0.2787717645332327       c2_12       -0.1890926652918987
    y2          c2_15       -0.1639987940153723       c2_30       -0.16219594980574287
    y2          c2_35       -1.0                      c2_42       -0.4385080008621379
    y2          c2_43       -0.46916799778259366      c2_45       -0.35763125538323093
    y2          budget      1.0                       link2       1.0
    y3          c1_1_3      0.0                       c1_5_3      0.6794347969847003
    y3          c1_34_3     0.13959987933553208       c1_35_3     0.8362875316236981
    y3          c1_44_3     0.7394753381392907        c1_45_3     0.0
    y3          c2_1        -1.0                      c2_5        -0.3205652030152997
    y3          c2_34       -0.8604001206644679       c2_35       -0.16371246837630196
    y3          c2_44       -0.26052466186070933      c2_45       -1.0
    y3          budget      1.0                       link3       1.0
    y4          c1_25_4     0.0                       c1_26_4     0.7346927512016077
    y4          c1_47_4     0.22624448850986123       c1_48_4     0.703440983457345
    y4          c2_25       -1.0                      c2_26       -0.26530724879839235
    y4          c2_47       -0.7737555114901388       c2_48       -0.2965590165426551
    y4          budget      1.0                       link4       1.0
    y5          c1_8_5      0.6323628394814949        c1_9_5      0.7090141367664207
    y5          c1_12_5     0.5658610600743565        c1_15_5     0.7957367967966154
    y5          c1_25_5     0.5993391162550856        c1_26_5     0.6322148138370098
    y5          c1_43_5     0.655285560670164         c1_46_5     0.8240298909683283
    y5          c1_47_5     0.013161985827966127      c1_48_5     0.0
    y5          c1_49_5     0.551291018903837         c2_8        -0.36763716051850515
    y5          c2_9        -0.2909858632335793       c2_12       -0.43413893992564345
    y5          c2_15       -0.2042632032033847       c2_25       -0.40066088374491443
    y5          c2_26       -0.3677851861629902       c2_43       -0.344714439329836
    y5          c2_46       -0.17597010903167165      c2_47       -0.9868380141720339
    y5          c2_48       -1.0                      c2_49       -0.448708981096163
    y5          budget      1.0                       link5       1.0
    y6          c1_1_6      0.5034293893927844        c1_34_6     0.0
    y6          c1_41_6     0.43255891368519195       c1_45_6     0.15474696924275955
    y6          c2_1        -0.49657061060721563      c2_34       -1.0
    y6          c2_41       -0.567441086314808        c2_45       -0.8452530307572405
    y6          budget      1.0                       link6       1.0
    y7          c1_13_7     0.1665656425349623        c1_17_7     0.2939037735219331
    y7          c1_20_7     0.0                       c1_28_7     0.703306409747282
    y7          c1_29_7     0.7557752609911987        c1_37_7     0.7937114105164013
    y7          c2_13       -0.8334343574650377       c2_17       -0.7060962264780669
    y7          c2_20       -1.0                      c2_28       -0.296693590252718
    y7          c2_29       -0.24422473900880126      c2_37       -0.20628858948359874
    y7          budget      1.0                       link7       1.0
    y8          c1_2_8      0.7115364896832805        c1_3_8      0.39181265532073806
    y8          c1_5_8      0.8293676694433804        c1_7_8      0.7061942444168954
    y8          c1_31_8     0.18377732589124907       c1_36_8     0.34128585552991064
    y8          c1_44_8     0.7848575839126226        c2_2        -0.2884635103167194
    y8          c2_3        -0.6081873446792619       c2_5        -0.17063233055661967
    y8          c2_7        -0.29380575558310457      c2_31       -0.8162226741087509
    y8          c2_36       -0.6587141444700894       c2_44       -0.21514241608737739
    y8          budget      1.0                       link8       1.0
    y9          c1_0_9      0.6955422472053432        c1_9_9      0.8279699711697954
    y9          c1_12_9     0.7596631375978826        c1_34_9     0.6867719493551745
    y9          c1_41_9     0.0                       c1_49_9     0.6612230656545883
    y9          c2_0        -0.30445775279465687      c2_9        -0.17203002883020452
    y9          c2_12       -0.24033686240211732      c2_34       -0.31322805064482545
    y9          c2_41       -1.0                      c2_49       -0.33877693434541173
    y9          budget      1.0                       link9       1.0
    MARKER                'MARKER'                 'INTEND'
    r0          cover       5.0                       c1_0_9      1.0
    r0          c2_0        1.0
    r1          cover       2.0                       c1_1_0      1.0
    r1          c1_1_2      1.0                       c1_1_3      1.0
    r1          c1_1_6      1.0                       c2_1        1.0
    r2          cover       4.0                       c1_2_8      1.0
    r2          c2_2        1.0
    r3          cover       2.0                       c1_3_8      1.0
    r3          c2_3        1.0
    r4          cover       1.0                       c1_4_1      1.0
    r4          c1_4_2      1.0                       c2_4        1.0
    r5          cover       1.0                       c1_5_2      1.0
    r5          c1_5_3      1.0                       c1_5_8      1.0
    r5          c2_5        1.0
    r6          cover       5.0                       c1_6_0      1.0
    r6          c1_6_1      1.0                       c1_6_2      1.0
    r6          c2_6        1.0
    r7          cover       4.0                       c1_7_8      1.0
    r7          c2_7        1.0
    r8          cover       4.0                       c1_8_0      1.0
    r8          c1_8_1      1.0                       c1_8_2      1.0
    r8          c1_8_5      1.0                       c2_8        1.0
    r9          cover       2.0                       c1_9_5      1.0
    r9          c1_9_9      1.0                       c2_9        1.0
    r10         cover       1.0                       c1_10_1     1.0
    r10         c1_10_2     1.0                       c2_10       1.0
    r11         cover       1.0                       c2_11       1.0
    r12         cover       2.0                       c1_12_0     1.0
    r12         c1_12_1     1.0                       c1_12_2     1.0
    r12         c1_12_5     1.0                       c1_12_9     1.0
    r12         c2_12       1.0
    r13         cover       3.0                       c1_13_7     1.0
    r13         c2_13       1.0
    r14         cover       1.0                       c2_14       1.0
    r15         cover       4.0                       c1_15_1     1.0
    r15         c1_15_2     1.0                       c1_15_5     1.0
    r15         c2_15       1.0
    r16         cover       2.0                       c2_16       1.0
    r17         cover       2.0                       c1_17_7     1.0
    r17         c2_17       1.0
    r18         cover       5.0                       c2_18       1.0
    r19         cover       1.0                       c2_19       1.0
    r20         cover       1.0                       c1_20_7     1.0
    r20         c2_20       1.0
    r21         cover       4.0                       c2_21       1.0
    r22         cover       3.0                       c2_22       1.0
    r23         cover       4.0                       c2_23       1.0
    r24         cover       3.0                       c2_24       1.0
    r25         cover       5.0                       c1_25_4     1.0
    r25         c1_25_5     1.0                       c2_25       1.0
    r26         cover       4.0                       c1_26_4     1.0
    r26         c1_26_5     1.0                       c2_26       1.0
    r27         cover       4.0                       c2_27       1.0
    r28         cover       1.0                       c1_28_7     1.0
    r28         c2_28       1.0
    r29         cover       4.0                       c1_29_7     1.0
    r29         c2_29       1.0
    r30         cover       1.0                       c1_30_2     1.0
    r30         c2_30       1.0
    r31         cover       5.0                       c1_31_8     1.0
    r31         c2_31       1.0
    r32         cover       3.0                       c2_32       1.0
    r33         cover       4.0                       c2_33       1.0
    r34         cover       5.0                       c1_34_0     1.0
    r34         c1_34_3     1.0                       c1_34_6     1.0
    r34         c1_34_9     1.0                       c2_34       1.0
    r35         cover       1.0                       c1_35_0     1.0
    r35         c1_35_2     1.0                       c1_35_3     1.0
    r35         c2_35       1.0
    r36         cover       3.0                       c1_36_8     1.0
    r36         c2_36       1.0
    r37         cover       4.0                       c1_37_7     1.0
    r37         c2_37       1.0
    r38         cover       4.0                       c2_38       1.0
    r39         cover       2.0                       c2_39       1.0
    r40         cover       4.0                       c2_40       1.0
    r41         cover       5.0                       c1_41_6     1.0
    r41         c1_41_9     1.0                       c2_41       1.0
    r42         cover       4.0                       c1_42_2     1.0
    r42         c2_42       1.0
    r43         cover       4.0                       c1_43_0     1.0
    r43         c1_43_1     1.0                       c1_43_2     1.0
    r43         c1_43_5     1.0                       c2_43       1.0
    r44         cover       2.0                       c1_44_3     1.0
    r44         c1_44_8     1.0                       c2_44       1.0
    r45         cover       2.0                       c1_45_0     1.0
    r45         c1_45_2     1.0                       c1_45_3     1.0
    r45         c1_45_6     1.0                       c2_45       1.0
    r46         cover       2.0                       c1_46_1     1.0
    r46         c1_46_5     1.0                       c2_46       1.0
    r47         cover       4.0                       c1_47_1     1.0
    r47         c1_47_4     1.0                       c1_47_5     1.0
    r47         c2_47       1.0
    r48         cover       3.0                       c1_48_4     1.0
    r48         c1_48_5     1.0                       c2_48       1.0
    r49         cover       3.0                       c1_49_5     1.0
    r49         c1_49_9     1.0                       c2_49       1.0
RHS
    rhs         cover       21.036982277622887
    rhs         c1_0_9      1.0
    rhs         c1_1_0      1.0
    rhs         c1_1_2      1.0
    rhs         c1_1_3      1.0
    rhs         c1_1_6      1.0
    rhs         c1_2_8      1.0
    rhs         c1_3_8      1.0
    rhs         c1_4_1      1.0
    rhs         c1_4_2      1.0
    rhs         c1_5_2      1.0
    rhs         c1_5_3      1.0
    rhs         c1_5_8      1.0
    rhs         c1_6_0      1.0
    rhs         c1_6_1      1.0
    rhs         c1_6_2      1.0
    rhs         c1_7_8      1.0
    rhs         c1_8_0      1.0
    rhs         c1_8_1      1.0
    rhs         c1_8_2      1.0
    rhs         c1_8_5      1.0
    rhs         c1_9_5      1.0
    rhs         c1_9_9      1.0
    rhs         c1_10_1     1.0
    rhs         c1_10_2     1.0
    rhs         c1_12_0     1.0
    rhs         c1_12_1     1.0
    rhs         c1_12_2     1.0
    rhs         c1_12_5     1.0
    rhs         c1_12_9     1.0
    rhs         c1_13_7     1.0
    rhs         c1_15_1     1.0
    rhs         c1_15_2     1.0
    rhs         c1_15_5     1.0
    rhs         c1_17_7     1.0
    rhs         c1_20_7     1.0
    rhs         c1_25_4     1.0
    rhs         c1_25_5     1.0
    rhs         c1_26_4     1.0
    rhs         c1_26_5     1.0
    rhs         c1_28_7     1.0
    rhs         c1_29_7     1.0
    rhs         c1_30_2     1.0
    rhs         c1_31_8     1.0
    rhs         c1_34_0     1.0
    rhs         c1_34_3     1.0
    rhs         c1_34_6     1.0
    rhs         c1_34_9     1.0
    rhs         c1_35_0     1.0
    rhs         c1_35_2     1.0
    rhs         c1_35_3     1.0
    rhs         c1_36_8     1.0
    rhs         c1_37_7     1.0
    rhs         c1_41_6     1.0
    rhs         c1_41_9     1.0
    rhs         c1_42_2     1.0
    rhs         c1_43_0     1.0
    rhs         c1_43_1     1.0
    rhs         c1_43_2     1.0
    rhs         c1_43_5     1.0
    rhs         c1_44_3     1.0
    rhs         c1_44_8     1.0
    rhs         c1_45_0     1.0
    rhs         c1_45_2     1.0
    rhs         c1_45_3     1.0
    rhs         c1_45_6     1.0
    rhs         c1_46_1     1.0
    rhs         c1_46_5     1.0
    rhs         c1_47_1     1.0
    rhs         c1_47_4     1.0
    rhs         c1_47_5     1.0
    rhs         c1_48_4     1.0
    rhs         c1_48_5     1.0
    rhs         c1_49_5     1.0
    rhs         c1_49_9     1.0
    rhs         budget      2.0
    rhs         link0       1.0
    rhs         link1       1.0
    rhs         link2       1.0
    rhs         link3       1.0
    rhs         link4       1.0
    rhs         link5       1.0
    rhs         link6       1.0
    rhs         link7       1.0
    rhs         link8       1.0
    rhs         link9       1.0
BOUNDS
 BV bnd       x0
 BV bnd       x1
 BV bnd       x2
 BV bnd       x3
 BV bnd       x4
 BV bnd       x5
 BV bnd       x6
 BV bnd       x7
 BV bnd       x8
 BV bnd       x9
 BV bnd       y0
 BV bnd       y1
 BV bnd       y2
 BV bnd       y3
 BV bnd       y4
 BV bnd       y5
 BV bnd       y6
 BV bnd       y7
 BV bnd       y8
 BV bnd       y9
 UP bnd       r0          1.0
 UP bnd       r1          1.0
 UP bnd       r2          1.0
 UP bnd       r3          1.0
 UP bnd       r4          1.0
 UP bnd       r5          1.0
 UP bnd       r6          1.0
 UP bnd       r7          1.0
 UP bnd       r8          1.0
 UP bnd       r9          1.0
 UP bnd       r10         1.0
 UP bnd       r11         1.0
 UP bnd       r12         1.0
 UP bnd       r13         1.0
 UP bnd       r14         1.0
 UP bnd       r15         1.0
 UP bnd       r16         1.0
 UP bnd       r17         1.0
 UP bnd       r18         1.0
 UP bnd       r19         1.0
 UP bnd       r20         1.0
 UP bnd       r21         1.0
 UP bnd       r22         1.0
 UP bnd       r23         1.0
 UP bnd       r24         1.0
 UP bnd       r25         1.0
 UP bnd       r26         1.0
 UP bnd       r27         1.0
 UP bnd       r28         1.0
 UP bnd       r29         1.0
 UP bnd       r30         1.0
 UP bnd       r31         1.0
 UP bnd       r32         1.0
 UP bnd       r33         1.0
 UP bnd       r34         1.0
 UP bnd       r35         1.0
 UP bnd       r36         1.0
 UP bnd       r37         1.0
 UP bnd       r38         1.0
 UP bnd       r39         1.0
 UP bnd       r40         1.0
 UP bnd       r41         1.0
 UP bnd       r42         1.0
 UP bnd       r43         1.0
 UP bnd       r44         1.0
 UP bnd       r45         1.0
 UP bnd       r46         1.0
 UP bnd       r47         1.0
 UP bnd       r48         1.0
 UP bnd       r49         1.0
ENDATA
