NAME          mmclbp_m10_n500_s0
ROWS
 N  obj
 L  cover
 L  c1_0_9
 L  c1_1_0
 L  c1_1_2
 L  c1_1_3
 L  c1_1_6
 L  c1_2_8
 L  c1_3_8
 L  c1_4_1
 L  c1_4_2
 L  c1_5_2
 L  c1_5_3
 L  c1_5_8
 L  c1_6_0
 L  c1_6_1
 L  c1_6_2
 L  c1_7_8
 L  c1_8_0
 L  c1_8_1
 L  c1_8_2
 L  c1_8_5
 L  c1_9_5
 L  c1_9_9
 L  c1_10_1
 L  c1_10_2
 L  c1_12_0
 L  c1_12_1
 L  c1_12_2
 L  c1_12_5
 L  c1_12_9
 L  c1_13_7
 L  c1_15_1
 L  c1_15_2
 L  c1_15_5
 L  c1_17_7
 L  c1_20_7
 L  c1_25_4
 L  c1_25_5
 L  c1_26_4
 L  c1_26_5
 L  c1_28_7
 L  c1_29_7
 L  c1_30_2
 L  c1_31_8
 L  c1_34_0
 L  c1_34_3
 L  c1_34_6
 L  c1_34_9
 L  c1_35_0
 L  c1_35_2
 L  c1_35_3
 L  c1_36_8
 L  c1_37_7
 L  c1_41_6
 L  c1_41_9
 L  c1_42_2
 L  c1_43_0
 L  c1_43_1
 L  c1_43_2
 L  c1_43_5
 L  c1_44_3
 L  c1_44_8
 L  c1_45_0
 L  c1_45_2
 L  c1_45_3
 L  c1_45_6
 L  c1_46_1
 L  c1_46_5
 L  c1_47_1
 L  c1_47_4
 L  c1_47_5
 L  c1_48_4
 L  c1_48_5
 L  c1_49_5
 L  c1_49_9
 L  c1_50_1
 L  c1_50_4
 L  c1_50_5
 L  c1_51_4
 L  c1_51_5
 L  c1_52_0
 L  c1_52_1
 L  c1_52_2
 L  c1_53_7
 L  c1_54_1
 L  c1_55_1
 L  c1_55_5
 L  c1_56_7
 L  c1_57_0
 L  c1_57_1
 L  c1_57_2
 L  c1_57_5
 L  c1_58_0
 L  c1_58_1
 L  c1_58_2
 L  c1_58_5
 L  c1_59_1
 L  c1_59_5
 L  c1_60_4
 L  c1_60_5
 L  c1_61_0
 L  c1_61_2
 L  c1_61_3
 L  c1_61_6
 L  c1_62_0
 L  c1_62_1
 L  c1_62_5
 L  c1_62_9
 L  c1_63_8
 L  c1_64_6
 L  c1_64_9
 L  c1_65_8
 L  c1_66_2
 L  c1_66_8
 L  c1_67_8
 L  c1_68_1
 L  c1_68_4
 L  c1_68_5
 L  c1_70_1
 L  c1_70_5
 L  c1_71_0
 L  c1_71_6
 L  c1_71_9
 L  c1_72_9
 L  c1_76_7
 L  c1_77_4
 L  c1_78_3
 L  c1_78_6
 L  c1_80_2
 L  c1_80_8
 L  c1_82_4
 L  c1_82_5
 L  c1_83_0
 L  c1_83_1
 L  c1_83_2
 L  c1_83_5
 L  c1_84_1
 L  c1_84_4
 L  c1_84_5
 L  c1_86_3
 L  c1_86_8
 L  c1_87_1
 L  c1_87_4
 L  c1_87_5
 L  c1_88_7
 L  c1_90_0
 L  c1_90_2
 L  c1_90_3
 L  c1_92_7
 L  c1_93_1
 L  c1_93_5
 L  c1_94_0
 L  c1_94_3
 L  c1_94_6
 L  c1_94_9
 L  c1_95_4
 L  c1_97_8
 L  c1_99_0
 L  c1_99_2
 L  c1_99_3
 L  c1_99_6
 L  c1_99_9
 L  c1_100_0
 L  c1_100_3
 L  c1_100_6
 L  c1_100_9
 L  c1_101_2
 L  c1_101_3
 L  c1_101_8
 L  c1_102_3
 L  c1_102_8
 L  c1_104_5
 L  c1_104_9
 L  c1_105_7
 L  c1_108_1
 L  c1_108_2
 L  c1_109_2
 L  c1_112_1
 L  c1_112_4
 L  c1_112_5
 L  c1_115_3
 L  c1_115_6
 L  c1_116_0
 L  c1_116_1
 L  c1_116_5
 L  c1_116_6
 L  c1_116_9
 L  c1_118_0
 L  c1_118_1
 L  c1_118_2
 L  c1_118_5
 L  c1_119_4
 L  c1_120_7
 L  c1_121_8
 L  c1_122_0
 L  c1_122_1
 L  c1_122_3
 L  c1_122_6
 L  c1_122_9
 L  c1_123_2
 L  c1_125_9
 L  c1_126_3
 L  c1_126_6
 L  c1_127_3
 L  c1_127_8
 L  c1_128_9
 L  c1_129_0
 L  c1_129_3
 L  c1_129_6
 L  c1_129_9
 L  c1_130_2
 L  c1_130_3
 L  c1_133_4
 L  c1_133_5
 L  c1_134_0
 L  c1_134_1
 L  c1_134_2
 L  c1_134_3
 L  c1_136_4
 L  c1_138_8
 L  c1_139_9
 L  c1_140_9
 L  c1_141_7
 L  c1_143_7
 L  c1_146_7
 L  c1_148_0
 L  c1_148_1
 L  c1_148_2
 L  c1_149_5
 L  c1_149_9
 L  c1_150_7
 L  c1_151_7
 L  c1_152_2
 L  c1_153_0
 L  c1_153_1
 L  c1_153_2
 L  c1_153_5
 L  c1_153_6
 L  c1_153_9
 L  c1_155_8
 L  c1_156_8
 L  c1_157_0
 L  c1_157_5
 L  c1_157_6
 L  c1_157_9
 L  c1_163_1
 L  c1_164_0
 L  c1_164_3
 L  c1_164_6
 L  c1_164_9
 L  c1_166_0
 L  c1_166_1
 L  c1_166_2
 L  c1_167_0
 L  c1_167_1
 L  c1_167_2
 L  c1_167_3
 L  c1_167_6
 L  c1_168_7
 L  c1_169_3
 L  c1_169_6
 L  c1_170_3
 L  c1_170_8
 L  c1_171_0
 L  c1_171_1
 L  c1_171_2
 L  c1_171_5
 L  c1_172_4
 L  c1_172_5
 L  c1_173_1
 L  c1_173_4
 L  c1_173_5
 L  c1_174_5
 L  c1_174_9
 L  c1_175_1
 L  c1_175_5
 L  c1_176_0
 L  c1_176_1
 L  c1_176_5
 L  c1_176_9
 L  c1_177_7
 L  c1_178_6
 L  c1_178_9
 L  c1_179_0
 L  c1_179_1
 L  c1_179_2
 L  c1_180_4
 L  c1_180_5
 L  c1_181_4
 L  c1_181_5
 L  c1_182_6
 L  c1_182_9
 L  c1_184_1
 L  c1_184_5
 L  c1_186_2
 L  c1_186_3
 L  c1_186_8
 L  c1_187_8
 L  c1_189_7
 L  c1_190_0
 L  c1_190_3
 L  c1_190_6
 L  c1_191_8
 L  c1_192_4
 L  c1_192_5
 L  c1_196_7
 L  c1_197_7
 L  c1_198_7
 L  c1_199_8
 L  c1_200_9
 L  c1_202_0
 L  c1_202_1
 L  c1_202_2
 L  c1_202_5
 L  c1_204_4
 L  c1_204_5
 L  c1_205_2
 L  c1_206_2
 L  c1_207_1
 L  c1_207_2
 L  c1_208_1
 L  c1_209_1
 L  c1_209_4
 L  c1_209_5
 L  c1_210_0
 L  c1_210_2
 L  c1_210_3
 L  c1_210_6
 L  c1_213_6
 L  c1_213_9
 L  c1_214_9
 L  c1_215_3
 L  c1_216_7
 L  c1_217_4
 L  c1_219_0
 L  c1_219_6
 L  c1_219_9
 L  c1_221_0
 L  c1_221_2
 L  c1_221_3
 L  c1_221_6
 L  c1_222_7
 L  c1_224_4
 L  c1_225_0
 L  c1_225_3
 L  c1_225_6
 L  c1_226_0
 L  c1_226_3
 L  c1_226_6
 L  c1_226_9
 L  c1_227_9
 L  c1_228_6
 L  c1_228_9
 L  c1_229_4
 L  c1_229_5
 L  c1_230_7
 L  c1_232_8
 L  c1_233_0
 L  c1_233_2
 L  c1_233_3
 L  c1_233_6
 L  c1_234_4
 L  c1_234_5
 L  c1_235_2
 L  c1_236_4
 L  c1_236_5
 L  c1_238_1
 L  c1_238_2
 L  c1_239_2
 L  c1_241_0
 L  c1_241_1
 L  c1_241_2
 L  c1_241_3
 L  c1_241_6
 L  c1_242_3
 L  c1_242_6
 L  c1_244_2
 L  c1_245_7
 L  c1_246_0
 L  c1_246_1
 L  c1_246_5
 L  c1_246_9
 L  c1_247_0
 L  c1_247_1
 L  c1_247_2
 L  c1_247_3
 L  c1_247_5
 L  c1_247_6
 L  c1_247_9
 L  c1_249_0
 L  c1_249_3
 L  c1_249_6
 L  c1_249_9
 L  c1_251_8
 L  c1_253_0
 L  c1_253_3
 L  c1_253_6
 L  c1_253_9
 L  c1_255_7
 L  c1_256_1
 L  c1_257_7
 L  c1_258_0
 L  c1_258_1
 L  c1_258_2
 L  c1_258_3
 L  c1_258_6
 L  c1_258_9
 L  c1_259_0
 L  c1_259_3
 L  c1_259_6
 L  c1_259_9
 L  c1_260_8
 L  c1_261_0
 L  c1_261_1
 L  c1_261_2
 L  c1_261_5
 L  c1_263_0
 L  c1_263_6
 L  c1_263_9
 L  c1_264_1
 L  c1_266_0
 L  c1_266_1
 L  c1_266_2
 L  c1_269_0
 L  c1_269_3
 L  c1_269_6
 L  c1_269_9
 L  c1_271_9
 L  c1_272_0
 L  c1_272_3
 L  c1_272_6
 L  c1_273_0
 L  c1_273_3
 L  c1_273_6
 L  c1_273_9
 L  c1_274_6
 L  c1_274_9
 L  c1_277_4
 L  c1_278_8
 L  c1_279_0
 L  c1_279_2
 L  c1_279_3
 L  c1_279_6
 L  c1_280_2
 L  c1_280_8
 L  c1_283_7
 L  c1_284_8
 L  c1_285_0
 L  c1_285_6
 L  c1_285_9
 L  c1_286_0
 L  c1_286_1
 L  c1_286_5
 L  c1_287_3
 L  c1_288_1
 L  c1_288_2
 L  c1_289_3
 L  c1_289_6
 L  c1_290_7
 L  c1_292_0
 L  c1_292_1
 L  c1_292_2
 L  c1_292_5
 L  c1_293_7
 L  c1_294_1
 L  c1_295_1
 L  c1_296_4
 L  c1_297_7
 L  c1_298_0
 L  c1_298_1
 L  c1_298_2
 L  c1_298_5
 L  c1_299_3
 L  c1_299_6
 L  c1_300_0
 L  c1_300_2
 L  c1_300_3
 L  c1_301_0
 L  c1_301_3
 L  c1_301_6
 L  c1_301_9
 L  c1_302_9
 L  c1_303_0
 L  c1_303_1
 L  c1_303_5
 L  c1_303_9
 L  c1_305_7
 L  c1_306_0
 L  c1_306_1
 L  c1_306_2
 L  c1_307_6
 L  c1_307_9
 L  c1_308_7
 L  c1_309_0
 L  c1_309_1
 L  c1_309_2
 L  c1_309_3
 L  c1_309_6
 L  c1_309_9
 L  c1_310_9
 L  c1_311_4
 L  c1_311_5
 L  c1_313_0
 L  c1_313_1
 L  c1_313_2
 L  c1_313_5
 L  c1_313_9
 L  c1_315_0
 L  c1_315_1
 L  c1_315_2
 L  c1_316_7
 L  c1_319_3
 L  c1_319_6
 L  c1_320_0
 L  c1_320_2
 L  c1_320_3
 L  c1_320_6
 L  c1_321_7
 L  c1_322_1
 L  c1_322_2
 L  c1_323_1
 L  c1_323_5
 L  c1_324_0
 L  c1_324_1
 L  c1_324_5
 L  c1_324_9
 L  c1_325_1
 L  c1_325_2
 L  c1_327_1
 L  c1_327_5
 L  c1_327_9
 L  c1_328_0
 L  c1_328_1
 L  c1_328_5
 L  c1_331_8
 L  c1_332_8
 L  c1_333_0
 L  c1_333_1
 L  c1_333_5
 L  c1_333_9
 L  c1_336_1
 L  c1_336_2
 L  c1_337_1
 L  c1_338_7
 L  c1_339_0
 L  c1_339_2
 L  c1_339_3
 L  c1_339_6
 L  c1_339_9
 L  c1_341_7
 L  c1_342_7
 L  c1_343_7
 L  c1_344_8
 L  c1_346_1
 L  c1_346_4
 L  c1_346_5
 L  c1_347_7
 L  c1_348_0
 L  c1_348_1
 L  c1_348_2
 L  c1_349_0
 L  c1_349_2
 L  c1_349_3
 L  c1_349_6
 L  c1_350_6
 L  c1_350_9
 L  c1_351_8
 L  c1_352_0
 L  c1_352_2
 L  c1_352_3
 L  c1_352_6
 L  c1_353_6
 L  c1_353_9
 L  c1_354_1
 L  c1_354_4
 L  c1_354_5
 L  c1_355_1
 L  c1_357_0
 L  c1_357_1
 L  c1_357_2
 L  c1_357_3
 L  c1_357_6
 L  c1_358_2
 L  c1_359_7
 L  c1_360_8
 L  c1_361_7
 L  c1_363_5
 L  c1_363_9
 L  c1_364_4
 L  c1_364_5
 L  c1_365_2
 L  c1_366_4
 L  c1_366_5
 L  c1_367_3
 L  c1_367_8
 L  c1_370_4
 L  c1_370_5
 L  c1_371_1
 L  c1_372_9
 L  c1_373_4
 L  c1_373_5
 L  c1_374_9
 L  c1_376_7
 L  c1_377_4
 L  c1_378_0
 L  c1_378_1
 L  c1_378_2
 L  c1_379_0
 L  c1_379_6
 L  c1_379_9
 L  c1_381_9
 L  c1_382_7
 L  c1_383_7
 L  c1_387_9
 L  c1_389_2
 L  c1_390_8
 L  c1_391_1
 L  c1_392_0
 L  c1_392_1
 L  c1_392_5
 L  c1_392_9
 L  c1_393_4
 L  c1_393_5
 L  c1_394_5
 L  c1_394_9
 L  c1_395_0
 L  c1_395_1
 L  c1_395_2
 L  c1_396_2
 L  c1_396_3
 L  c1_397_7
 L  c1_399_1
 L  c1_399_4
 L  c1_399_5
 L  c1_402_3
 L  c1_402_8
 L  c1_403_3
 L  c1_403_8
 L  c1_406_0
 L  c1_406_1
 L  c1_406_5
 L  c1_406_9
 L  c1_407_1
 L  c1_407_4
 L  c1_407_5
 L  c1_409_0
 L  c1_409_2
 L  c1_409_3
 L  c1_411_8
 L  c1_412_0
 L  c1_412_2
 L  c1_412_3
 L  c1_412_6
 L  c1_413_1
 L  c1_413_4
 L  c1_413_5
 L  c1_414_0
 L  c1_414_1
 L  c1_414_2
 L  c1_415_5
 L  c1_415_9
 L  c1_416_8
 L  c1_417_5
 L  c1_417_9
 L  c1_420_9
 L  c1_422_0
 L  c1_422_3
 L  c1_422_6
 L  c1_422_9
 L  c1_423_7
 L  c1_424_4
 L  c1_424_5
 L  c1_425_4
 L  c1_426_1
 L  c1_427_2
 L  c1_428_1
 L  c1_429_5
 L  c1_429_9
 L  c1_430_4
 L  c1_430_5
 L  c1_431_0
 L  c1_431_1
 L  c1_431_2
 L  c1_431_3
 L  c1_431_6
 L  c1_431_9
 L  c1_432_4
 L  c1_432_5
 L  c1_433_0
 L  c1_433_1
 L  c1_433_5
 L  c1_433_9
 L  c1_434_8
 L  c1_435_0
 L  c1_435_1
 L  c1_435_2
 L  c1_436_0
 L  c1_436_1
 L  c1_436_2
 L  c1_437_0
 L  c1_437_1
 L  c1_437_2
 L  c1_437_5
 L  c1_438_4
 L  c1_438_5
 L  c1_438_9
 L  c1_439_1
 L  c1_439_2
 L  c1_440_4
 L  c1_440_5
 L  c1_441_7
 L  c1_442_9
 L  c1_443_7
 L  c1_444_7
 L  c1_447_1
 L  c1_447_4
 L  c1_447_5
 L  c1_449_4
 L  c1_449_5
 L  c1_450_0
 L  c1_450_1
 L  c1_450_5
 L  c1_451_0
 L  c1_451_2
 L  c1_451_3
 L  c1_451_6
 L  c1_452_0
 L  c1_452_2
 L  c1_452_3
 L  c1_452_6
 L  c1_452_9
 L  c1_454_4
 L  c1_456_7
 L  c1_457_0
 L  c1_457_2
 L  c1_457_3
 L  c1_457_6
 L  c1_458_7
 L  c1_459_0
 L  c1_459_2
 L  c1_459_3
 L  c1_459_6
 L  c1_460_7
 L  c1_461_8
 L  c1_463_1
 L  c1_463_4
 L  c1_463_5
 L  c1_464_0
 L  c1_464_6
 L  c1_464_9
 L  c1_465_3
 L  c1_465_8
 L  c1_466_7
 L  c1_468_0
 L  c1_468_1
 L  c1_468_2
 L  c1_469_9
 L  c1_470_2
 L  c1_473_0
 L  c1_473_1
 L  c1_473_2
 L  c1_473_3
 L  c1_473_6
 L  c1_474_8
 L  c1_476_4
 L  c1_476_5
 L  c1_477_4
 L  c1_478_1
 L  c1_479_2
 L  c1_480_9
 L  c1_481_0
 L  c1_481_1
 L  c1_481_5
 L  c1_482_4
 L  c1_482_5
 L  c1_483_9
 L  c1_484_2
 L  c1_484_3
 L  c1_484_8
 L  c1_485_7
 L  c1_486_2
 L  c1_488_0
 L  c1_488_3
 L  c1_488_6
 L  c1_489_2
 L  c1_489_8
 L  c1_491_0
 L  c1_491_1
 L  c1_491_2
 L  c1_491_3
 L  c1_491_6
 L  c1_492_8
 L  c1_494_3
 L  c1_494_8
 L  c1_496_2
 L  c1_499_0
 L  c1_499_1
 L  c1_499_2
 L  c1_499_3
 L  c1_499_6
 L  c1_499_9
 L  c2_0
 L  c2_1
 L  c2_2
 L  c2_3
 L  c2_4
 L  c2_5
 L  c2_6
 L  c2_7
 L  c2_8
 L  c2_9
 L  c2_10
 L  c2_11
 L  c2_12
 L  c2_13
 L  c2_14
 L  c2_15
 L  c2_16
 L  c2_17
 L  c2_18
 L  c2_19
 L  c2_20
 L  c2_21
 L  c2_22
 L  c2_23
 L  c2_24
 L  c2_25
 L  c2_26
 L  c2_27
 L  c2_28
 L  c2_29
 L  c2_30
 L  c2_31
 L  c2_32
 L  c2_33
 L  c2_34
 L  c2_35
 L  c2_36
 L  c2_37
 L  c2_38
 L  c2_39
 L  c2_40
 L  c2_41
 L  c2_42
 L  c2_43
 L  c2_44
 L  c2_45
 L  c2_46
 L  c2_47
 L  c2_48
 L  c2_49
 L  c2_50
 L  c2_51
 L  c2_52
 L  c2_53
 L  c2_54
 L  c2_55
 L  c2_56
 L  c2_57
 L  c2_58
 L  c2_59
 L  c2_60
 L  c2_61
 L  c2_62
 L  c2_63
 L  c2_64
 L  c2_65
 L  c2_66
 L  c2_67
 L  c2_68
 L  c2_69
 L  c2_70
 L  c2_71
 L  c2_72
 L  c2_73
 L  c2_74
 L  c2_75
 L  c2_76
 L  c2_77
 L  c2_78
 L  c2_79
 L  c2_80
 L  c2_81
 L  c2_82
 L  c2_83
 L  c2_84
 L  c2_85
 L  c2_86
 L  c2_87
 L  c2_88
 L  c2_89
 L  c2_90
 L  c2_91
 L  c2_92
 L  c2_93
 L  c2_94
 L  c2_95
 L  c2_96
 L  c2_97
 L  c2_98
 L  c2_99
 L  c2_100
 L  c2_101
 L  c2_102
 L  c2_103
 L  c2_104
 L  c2_105
 L  c2_106
 L  c2_107
 L  c2_108
 L  c2_109
 L  c2_110
 L  c2_111
 L  c2_112
 L  c2_113
 L  c2_114
 L  c2_115
 L  c2_116
 L  c2_117
 L  c2_118
 L  c2_119
 L  c2_120
 L  c2_121
 L  c2_122
 L  c2_123
 L  c2_124
 L  c2_125
 L  c2_126
 L  c2_127
 L  c2_128
 L  c2_129
 L  c2_130
 L  c2_131
 L  c2_132
 L  c2_133
 L  c2_134
 L  c2_135
 L  c2_136
 L  c2_137
 L  c2_138
 L  c2_139
 L  c2_140
 L  c2_141
 L  c2_142
 L  c2_143
 L  c2_144
 L  c2_145
 L  c2_146
 L  c2_147
 L  c2_148
 L  c2_149
 L  c2_150
 L  c2_151
 L  c2_152
 L  c2_153
 L  c2_154
 L  c2_155
 L  c2_156
 L  c2_157
 L  c2_158
 L  c2_159
 L  c2_160
 L  c2_161
 L  c2_162
 L  c2_163
 L  c2_164
 L  c2_165
 L  c2_166
 L  c2_167
 L  c2_168
 L  c2_169
 L  c2_170
 L  c2_171
 L  c2_172
 L  c2_173
 L  c2_174
 L  c2_175
 L  c2_176
 L  c2_177
 L  c2_178
 L  c2_179
 L  c2_180
 L  c2_181
 L  c2_182
 L  c2_183
 L  c2_184
 L  c2_185
 L  c2_186
 L  c2_187
 L  c2_188
 L  c2_189
 L  c2_190
 L  c2_191
 L  c2_192
 L  c2_193
 L  c2_194
 L  c2_195
 L  c2_196
 L  c2_197
 L  c2_198
 L  c2_199
 L  c2_200
 L  c2_201
 L  c2_202
 L  c2_203
 L  c2_204
 L  c2_205
 L  c2_206
 L  c2_207
 L  c2_208
 L  c2_209
 L  c2_210
 L  c2_211
 L  c2_212
 L  c2_213
 L  c2_214
 L  c2_215
 L  c2_216
 L  c2_217
 L  c2_218
 L  c2_219
 L  c2_220
 L  c2_221
 L  c2_222
 L  c2_223
 L  c2_224
 L  c2_225
 L  c2_226
 L  c2_227
 L  c2_228
 L  c2_229
 L  c2_230
 L  c2_231
 L  c2_232
 L  c2_233
 L  c2_234
 L  c2_235
 L  c2_236
 L  c2_237
 L  c2_238
 L  c2_239
 L  c2_240
 L  c2_241
 L  c2_242
 L  c2_243
 L  c2_244
 L  c2_245
 L  c2_246
 L  c2_247
 L  c2_248
 L  c2_249
 L  c2_250
 L  c2_251
 L  c2_252
 L  c2_253
 L  c2_254
 L  c2_255
 L  c2_256
 L  c2_257
 L  c2_258
 L  c2_259
 L  c2_260
 L  c2_261
 L  c2_262
 L  c2_263
 L  c2_264
 L  c2_265
 L  c2_266
 L  c2_267
 L  c2_268
 L  c2_269
 L  c2_270
 L  c2_271
 L  c2_272
 L  c2_273
 L  c2_274
 L  c2_275
 L  c2_276
 L  c2_277
 L  c2_278
 L  c2_279
 L  c2_280
 L  c2_281
 L  c2_282
 L  c2_283
 L  c2_284
 L  c2_285
 L  c2_286
 L  c2_287
 L  c2_288
 L  c2_289
 L  c2_290
 L  c2_291
 L  c2_292
 L  c2_293
 L  c2_294
 L  c2_295
 L  c2_296
 L  c2_297
 L  c2_298
 L  c2_299
 L  c2_300
 L  c2_301
 L  c2_302
 L  c2_303
 L  c2_304
 L  c2_305
 L  c2_306
 L  c2_307
 L  c2_308
 L  c2_309
 L  c2_310
 L  c2_311
 L  c2_312
 L  c2_313
 L  c2_314
 L  c2_315
 L  c2_316
 L  c2_317
 L  c2_318
 L  c2_319
 L  c2_320
 L  c2_321
 L  c2_322
 L  c2_323
 L  c2_324
 L  c2_325
 L  c2_326
 L  c2_327
 L  c2_328
 L  c2_329
 L  c2_330
 L  c2_331
 L  c2_332
 L  c2_333
 L  c2_334
 L  c2_335
 L  c2_336
 L  c2_337
 L  c2_338
 L  c2_339
 L  c2_340
 L  c2_341
 L  c2_342
 L  c2_343
 L  c2_344
 L  c2_345
 L  c2_346
 L  c2_347
 L  c2_348
 L  c2_349
 L  c2_350
 L  c2_351
 L  c2_352
 L  c2_353
 L  c2_354
 L  c2_355
 L  c2_356
 L  c2_357
 L  c2_358
 L  c2_359
 L  c2_360
 L  c2_361
 L  c2_362
 L  c2_363
 L  c2_364
 L  c2_365
 L  c2_366
 L  c2_367
 L  c2_368
 L  c2_369
 L  c2_370
 L  c2_371
 L  c2_372
 L  c2_373
 L  c2_374
 L  c2_375
 L  c2_376
 L  c2_377
 L  c2_378
 L  c2_379
 L  c2_380
 L  c2_381
 L  c2_382
 L  c2_383
 L  c2_384
 L  c2_385
 L  c2_386
 L  c2_387
 L  c2_388
 L  c2_389
 L  c2_390
 L  c2_391
 L  c2_392
 L  c2_393
 L  c2_394
 L  c2_395
 L  c2_396
 L  c2_397
 L  c2_398
 L  c2_399
 L  c2_400
 L  c2_401
 L  c2_402
 L  c2_403
 L  c2_404
 L  c2_405
 L  c2_406
 L  c2_407
 L  c2_408
 L  c2_409
 L  c2_410
 L  c2_411
 L  c2_412
 L  c2_413
 L  c2_414
 L  c2_415
 L  c2_416
 L  c2_417
 L  c2_418
 L  c2_419
 L  c2_420
 L  c2_421
 L  c2_422
 L  c2_423
 L  c2_424
 L  c2_425
 L  c2_426
 L  c2_427
 L  c2_428
 L  c2_429
 L  c2_430
 L  c2_431
 L  c2_432
 L  c2_433
 L  c2_434
 L  c2_435
 L  c2_436
 L  c2_437
 L  c2_438
 L  c2_439
 L  c2_440
 L  c2_441
 L  c2_442
 L  c2_443
 L  c2_444
 L  c2_445
 L  c2_446
 L  c2_447
 L  c2_448
 L  c2_449
 L  c2_450
 L  c2_451
 L  c2_452
 L  c2_453
 L  c2_454
 L  c2_455
 L  c2_456
 L  c2_457
 L  c2_458
 L  c2_459
 L  c2_460
 L  c2_461
 L  c2_462
 L  c2_463
 L  c2_464
 L  c2_465
 L  c2_466
 L  c2_467
 L  c2_468
 L  c2_469
 L  c2_470
 L  c2_471
 L  c2_472
 L  c2_473
 L  c2_474
 L  c2_475
 L  c2_476
 L  c2_477
 L  c2_478
 L  c2_479
 L  c2_480
 L  c2_481
 L  c2_482
 L  c2_483
 L  c2_484
 L  c2_485
 L  c2_486
 L  c2_487
 L  c2_488
 L  c2_489
 L  c2_490
 L  c2_491
 L  c2_492
 L  c2_493
 L  c2_494
 L  c2_495
 L  c2_496
 L  c2_497
 L  c2_498
 L  c2_499
 L  budget
 L  link0
 L  link1
 L  link2
 L  link3
 L  link4
 L  link5
 L  link6
 L  link7
 L  link8
 L  link9
COLUMNS
    MARKER                'MARKER'                 'INTORG'
    x0          obj         1.0                       link0       1.0
    x1          obj         1.0                       link1       1.0
    x2          obj         1.0                       link2       1.0
    x3          obj         1.0                       link3       1.0
    x4          obj         1.0                       link4       1.0
    x5          obj         1.0                       link5       1.0
    x6          obj         1.0                       link6       1.0
    x7          obj         1.0                       link7       1.0
    x8          obj         1.0                       link8       1.0
    x9          obj         1.0                       link9       1.0
    y0          c1_1_0      0.0                       c1_6_0      0.4530639734382038
    y0          c1_8_0      0.0                       c1_12_0     0.0
    y0          c1_34_0     0.7098299806519184        c1_35_0     0.7828670880221626
    y0          c1_43_0     0.2133472538554061        c1_45_0     0.38745611221615806
    y0          c1_52_0     0.3844637122913236        c1_57_0     0.0
    y0          c1_58_0     0.0                       c1_61_0     0.6821420372044258
    y0          c1_62_0     0.845014986483902         c1_71_0     0.765216444296465
    y0          c1_83_0     0.0                       c1_90_0     0.791222304534112
    y0          c1_94_0     0.5173229788078586        c1_99_0     0.0
    y0          c1_100_0    0.4781737689611969        c1_116_0    0.723698385979352
    y0          c1_118_0    0.0                       c1_122_0    0.09326164545410609
    y0          c1_129_0    0.49454588804851163       c1_134_0    0.0
    y0          c1_148_0    0.650283110803098         c1_153_0    0.03753113142725939
    y0          c1_157_0    0.7924313201840432        c1_164_0    0.8152806303003372
    y0          c1_166_0    0.788462326677148         c1_167_0    0.0
    y0          c1_171_0    0.8466292766206811        c1_176_0    0.7375390529928241
    y0          c1_179_0    0.26414807054866696       c1_190_0    0.8504825914765064
    y0          c1_202_0    0.8046734878414914        c1_210_0    0.726720846680337
    y0          c1_219_0    0.8171724615397347        c1_221_0    0.48615469041344483
    y0          c1_225_0    0.7726514993437428        c1_226_0    0.4593278819689979
    y0          c1_233_0    0.8127124197012657        c1_241_0    0.0
    y0          c1_246_0    0.5998924060171319        c1_247_0    0.0
    y0          c1_249_0    0.6723639632727403        c1_253_0    0.6723845413853178
    y0          c1_258_0    0.0                       c1_259_0    0.8594245292915932
    y0          c1_261_0    0.04731399828867966       c1_263_0    0.48443919888066844
    y0          c1_266_0    0.7376116450572634        c1_269_0    0.5544124343315766
    y0          c1_272_0    0.693754222499845         c1_273_0    0.6749384678904122
    y0          c1_279_0    0.7200713112365367        c1_285_0    0.8601551450012953
    y0          c1_286_0    0.7418865034973862        c1_292_0    0.811635083115568
    y0          c1_298_0    0.0                       c1_300_0    0.6152953855242349
    y0          c1_301_0    0.0                       c1_303_0    0.7124010783169015
    y0          c1_306_0    0.7494917440061994        c1_309_0    0.0
    y0          c1_313_0    0.19905164417886612       c1_315_0    0.14131943173426187
    y0          c1_320_0    0.5674399341868894        c1_324_0    0.5153395487905474
    y0          c1_328_0    0.830310913386939         c1_333_0    0.45733339788408056
    y0          c1_339_0    0.0                       c1_348_0    0.7271772182094385
    y0          c1_349_0    0.6838611087415599        c1_352_0    0.7506363734694816
    y0          c1_357_0    0.0                       c1_378_0    0.801261316161157
    y0          c1_379_0    0.8573746976406434        c1_392_0    0.8518251034295883
    y0          c1_395_0    0.6973751005028634        c1_406_0    0.6047504371619534
    y0          c1_409_0    0.8410037451886463        c1_412_0    0.5283173129071214
    y0          c1_414_0    0.8625138225242275        c1_422_0    0.8345642591777427
    y0          c1_431_0    0.0                       c1_433_0    0.7395478044333674
    y0          c1_435_0    0.8333066163019779        c1_436_0    0.4907654524842431
    y0          c1_437_0    0.7610060491643911        c1_450_0    0.7496583860674618
    y0          c1_451_0    0.6130325738863092        c1_452_0    0.0
    y0          c1_457_0    0.0                       c1_459_0    0.79748667278691
    y0          c1_464_0    0.6587383166441256        c1_468_0    0.6581539085972099
    y0          c1_473_0    0.0                       c1_481_0    0.7808835894776276
    y0          c1_488_0    0.7501044256980496        c1_491_0    0.0
    y0          c1_499_0    0.0                       c2_1        -1.0
    y0          c2_6        -0.5469360265617962       c2_8        -1.0
    y0          c2_12       -1.0                      c2_34       -0.29017001934808156
    y0          c2_35       -0.2171329119778373       c2_43       -0.7866527461445939
    y0          c2_45       -0.612543887783842        c2_52       -0.6155362877086764
    y0          c2_57       -1.0                      c2_58       -1.0
    y0          c2_61       -0.3178579627955742       c2_62       -0.15498501351609792
    y0          c2_71       -0.234783555703535        c2_83       -1.0
    y0          c2_90       -0.20877769546588804      c2_94       -0.48267702119214134
    y0          c2_99       -1.0                      c2_100      -0.5218262310388031
    y0          c2_116      -0.27630161402064796      c2_118      -1.0
    y0          c2_122      -0.9067383545458939       c2_129      -0.5054541119514884
    y0          c2_134      -1.0                      c2_148      -0.34971688919690197
    y0          c2_153      -0.9624688685727406       c2_157      -0.20756867981595678
    y0          c2_164      -0.18471936969966282      c2_166      -0.21153767332285198
    y0          c2_167      -1.0                      c2_171      -0.15337072337931884
    y0          c2_176      -0.2624609470071759       c2_179      -0.735851929451333
    y0          c2_190      -0.1495174085234936       c2_202      -0.1953265121585086
    y0          c2_210      -0.273279153319663        c2_219      -0.18282753846026528
    y0          c2_221      -0.5138453095865552       c2_225      -0.22734850065625728
    y0          c2_226      -0.5406721180310021       c2_233      -0.18728758029873424
    y0          c2_241      -1.0                      c2_246      -0.4001075939828681
    y0          c2_247      -1.0                      c2_249      -0.32763603672725977
    y0          c2_253      -0.32761545861468216      c2_258      -1.0
    y0          c2_259      -0.14057547070840687      c2_261      -0.9526860017113203
    y0          c2_263      -0.5155608011193316       c2_266      -0.26238835494273655
    y0          c2_269      -0.44558756566842334      c2_272      -0.30624577750015497
    y0          c2_273      -0.3250615321095877       c2_279      -0.27992868876346333
    y0          c2_285      -0.13984485499870467      c2_286      -0.25811349650261384
    y0          c2_292      -0.188364916884432        c2_298      -1.0
    y0          c2_300      -0.38470461447576504      c2_301      -1.0
    y0          c2_303      -0.2875989216830986       c2_306      -0.2505082559938006
    y0          c2_309      -1.0                      c2_313      -0.8009483558211339
    y0          c2_315      -0.8586805682657381       c2_320      -0.43256006581311063
    y0          c2_324      -0.4846604512094525       c2_328      -0.16968908661306106
    y0          c2_333      -0.5426666021159194       c2_339      -1.0
    y0          c2_348      -0.2728227817905616       c2_349      -0.3161388912584401
    y0          c2_352      -0.24936362653051833      c2_357      -1.0
    y0          c2_378      -0.19873868383884294      c2_379      -0.14262530235935653
    y0          c2_392      -0.14817489657041172      c2_395      -0.3026248994971365
    y0          c2_406      -0.3952495628380466       c2_409      -0.1589962548113537
    y0          c2_412      -0.47168268709287864      c2_414      -0.13748617747577255
    y0          c2_422      -0.16543574082225726      c2_431      -1.0
    y0          c2_433      -0.26045219556663257      c2_435      -0.16669338369802214
    y0          c2_436      -0.5092345475157569       c2_437      -0.23899395083560895
    y0          c2_450      -0.2503416139325382       c2_451      -0.3869674261136909
    y0          c2_452      -1.0                      c2_457      -1.0
    y0          c2_459      -0.20251332721309004      c2_464      -0.3412616833558744
    y0          c2_468      -0.34184609140279004      c2_473      -1.0
    y0          c2_481      -0.21911641052237235      c2_488      -0.24989557430195042
    y0          c2_491      -1.0                      c2_499      -1.0
    y0          budget      1.0                       link0       1.0
    y1          c1_4_1      0.2589536991229813        c1_6_1      0.20338799065512658
    y1          c1_8_1      0.0                       c1_10_1     0.8634937056524671
    y1          c1_12_1     0.11003890598023747       c1_15_1     0.0
    y1          c1_43_1     0.0                       c1_46_1     0.8626380981797919
    y1          c1_47_1     0.8458198806890633        c1_50_1     0.0
    y1          c1_52_1     0.5673400184537492        c1_54_1     0.8530842099552206
    y1          c1_55_1     0.0                       c1_57_1     0.0
    y1          c1_58_1     0.0                       c1_59_1     0.0
    y1          c1_62_1     0.8463357474973163        c1_68_1     0.6637036389937236
    y1          c1_70_1     0.0                       c1_83_1     0.0
    y1          c1_84_1     0.8622372768118586        c1_87_1     0.18799861952473318
    y1          c1_93_1     0.0                       c1_108_1    0.8058926915107605
    y1          c1_112_1    0.5564327148003514        c1_116_1    0.851943979215879
    y1          c1_118_1    0.0                       c1_122_1    0.8248591101306342
    y1          c1_134_1    0.11661279471590269       c1_148_1    0.5227750423558175
    y1          c1_153_1    0.4307757204889696        c1_163_1    0.8324552056117569
    y1          c1_166_1    0.4715363077183645        c1_167_1    0.2428898312277442
    y1          c1_171_1    0.0                       c1_173_1    0.5711224708939544
    y1          c1_175_1    0.7912799643733105        c1_176_1    0.4957641494044994
    y1          c1_179_1    0.24188260347440516       c1_184_1    0.2066096215066191
    y1          c1_202_1    0.0                       c1_207_1    0.19706502406383197
    y1          c1_208_1    0.855450342330943         c1_209_1    0.3908921649781729
    y1          c1_238_1    0.6608843687743511        c1_241_1    0.7271809376094561
    y1          c1_246_1    0.5915117474528417        c1_247_1    0.394710706317562
    y1          c1_256_1    0.8643812278923277        c1_258_1    0.25047147896488364
    y1          c1_261_1    0.0                       c1_264_1    0.7671607126715091
    y1          c1_266_1    0.35580042820042124       c1_286_1    0.0
    y1          c1_288_1    0.8307719416188595        c1_292_1    0.0
    y1          c1_294_1    0.619440729687077         c1_295_1    0.835805081499523
    y1          c1_298_1    0.0                       c1_303_1    0.7392033856799853
    y1          c1_306_1    0.44019652274850696       c1_309_1    0.6372729885008163
    y1          c1_313_1    0.07890244419090053       c1_315_1    0.0
    y1          c1_322_1    0.8161479404416533        c1_323_1    0.6908743255745979
    y1          c1_324_1    0.1687325902755592        c1_325_1    0.7754746718898186
    y1          c1_327_1    0.8126843621519468        c1_328_1    0.0
    y1          c1_333_1    0.021899349314219996      c1_336_1    0.2898230562673617
    y1          c1_337_1    0.6105770877708694        c1_346_1    0.5868233675202665
    y1          c1_348_1    0.42816410682747974       c1_354_1    0.794402711063796
    y1          c1_355_1    0.6140747617600049        c1_357_1    0.45332196367876354
    y1          c1_371_1    0.8547068924084521        c1_378_1    0.3102561627481416
    y1          c1_391_1    0.8426962438051186        c1_392_1    0.8588779185410793
    y1          c1_395_1    0.8437186299059761        c1_399_1    0.14271675694808528
    y1          c1_406_1    0.28448917162477827       c1_407_1    0.7241374388409214
    y1          c1_413_1    0.5588714967384019        c1_414_1    0.7693035253137339
    y1          c1_426_1    0.7639332758176167        c1_428_1    0.8336466973438235
    y1          c1_431_1    0.7844322014409362        c1_433_1    0.8374518591783386
    y1          c1_435_1    0.43761718315701204       c1_436_1    0.28921625261826245
    y1          c1_437_1    0.0                       c1_439_1    0.7940716149324635
    y1          c1_447_1    0.8539836240139322        c1_450_1    0.0
    y1          c1_463_1    0.7946968298671431        c1_468_1    0.0
    y1          c1_473_1    0.7297548816216983        c1_478_1    0.8581261188843031
    y1          c1_481_1    0.0                       c1_491_1    0.6702616003206543
    y1          c1_499_1    0.6777819961452018        c2_4        -0.7410463008770187
    y1          c2_6        -0.7966120093448734       c2_8        -1.0
    y1          c2_10       -0.13650629434753292      c2_12       -0.8899610940197625
    y1          c2_15       -1.0                      c2_43       -1.0
    y1          c2_46       -0.13736190182020816      c2_47       -0.15418011931093673
    y1          c2_50       -1.0                      c2_52       -0.4326599815462508
    y1          c2_54       -0.14691579004477942      c2_55       -1.0
    y1          c2_57       -1.0                      c2_58       -1.0
    y1          c2_59       -1.0                      c2_62       -0.15366425250268362
    y1          c2_68       -0.3362963610062763       c2_70       -1.0
    y1          c2_83       -1.0                      c2_84       -0.1377627231881414
    y1          c2_87       -0.8120013804752668       c2_93       -1.0
    y1          c2_108      -0.19410730848923957      c2_112      -0.44356728519964866
    y1          c2_116      -0.14805602078412097      c2_118      -1.0
    y1          c2_122      -0.17514088986936588      c2_134      -0.8833872052840973
    y1          c2_148      -0.4772249576441825       c2_153      -0.5692242795110304
    y1          c2_163      -0.16754479438824305      c2_166      -0.5284636922816355
    y1          c2_167      -0.7571101687722558       c2_171      -1.0
    y1          c2_173      -0.42887752910604565      c2_175      -0.20872003562668953
    y1          c2_176      -0.5042358505955006       c2_179      -0.7581173965255948
    y1          c2_184      -0.7933903784933809       c2_202      -1.0
    y1          c2_207      -0.802934975936168        c2_208      -0.14454965766905703
    y1          c2_209      -0.6091078350218271       c2_238      -0.3391156312256489
    y1          c2_241      -0.2728190623905439       c2_246      -0.40848825254715826
    y1          c2_247      -0.605289293682438        c2_256      -0.1356187721076722
    y1          c2_258      -0.7495285210351164       c2_261      -1.0
    y1          c2_264      -0.23283928732849093      c2_266      -0.6441995717995788
    y1          c2_286      -1.0                      c2_288      -0.16922805838114052
    y1          c2_292      -1.0                      c2_294      -0.380559270312923
    y1          c2_295      -0.16419491850047702      c2_298      -1.0
    y1          c2_303      -0.26079661432001466      c2_306      -0.559803477251493
    y1          c2_309      -0.36272701149918374      c2_313      -0.9210975558090995
    y1          c2_315      -1.0                      c2_322      -0.1838520595583467
    y1          c2_323      -0.30912567442540206      c2_324      -0.8312674097244408
    y1          c2_325      -0.22452532811018144      c2_327      -0.1873156378480531
    y1          c2_328      -1.0                      c2_333      -0.97810065068578
    y1          c2_336      -0.7101769437326383       c2_337      -0.38942291222913056
    y1          c2_346      -0.41317663247973346      c2_348      -0.5718358931725203
    y1          c2_354      -0.20559728893620402      c2_355      -0.38592523823999514
    y1          c2_357      -0.5466780363212365       c2_371      -0.14529310759154793
    y1          c2_378      -0.6897438372518584       c2_391      -0.1573037561948814
    y1          c2_392      -0.14112208145892072      c2_395      -0.15628137009402387
    y1          c2_399      -0.8572832430519147       c2_406      -0.7155108283752217
    y1          c2_407      -0.2758625611590786       c2_413      -0.4411285032615981
    y1          c2_414      -0.23069647468626614      c2_426      -0.23606672418238325
    y1          c2_428      -0.16635330265617648      c2_431      -0.21556779855906377
    y1          c2_433      -0.16254814082166133      c2_435      -0.562382816842988
    y1          c2_436      -0.7107837473817376       c2_437      -1.0
    y1          c2_439      -0.20592838506753655      c2_447      -0.14601637598606773
    y1          c2_450      -1.0                      c2_463      -0.20530317013285695
    y1          c2_468      -1.0                      c2_473      -0.27024511837830173
    y1          c2_478      -0.14187388111569685      c2_481      -1.0
    y1          c2_491      -0.32973839967934576      c2_499      -0.3222180038547982
    y1          budget      1.0                       link1       1.0
    y2          c1_1_2      0.09308915946606211       c1_4_2      0.8293710723849455
    y2          c1_5_2      0.6556702512529178        c1_6_2      0.0
    y2          c1_8_2      0.5767528842709           c1_10_2     0.7212282354667673
    y2          c1_12_2     0.8109073347081013        c1_15_2     0.8360012059846277
    y2          c1_30_2     0.8378040501942572        c1_35_2     0.0
    y2          c1_42_2     0.5614919991378621        c1_43_2     0.5308320022174063
    y2          c1_45_2     0.6423687446167691        c1_52_2     0.0
    y2          c1_57_2     0.29157189588400556       c1_58_2     0.23103721298052715
    y2          c1_61_2     0.8163972154775345        c1_66_2     0.8568360986020338
    y2          c1_80_2     0.850675939355477         c1_83_2     0.0
    y2          c1_90_2     0.0                       c1_99_2     0.8203467417212013
    y2          c1_101_2    0.7006322799850473        c1_108_2    0.5655715331835515
    y2          c1_109_2    0.30444115966337937       c1_118_2    0.127908473735593
    y2          c1_123_2    0.2652998386676857        c1_130_2    0.8024249208974583
    y2          c1_134_2    0.0                       c1_148_2    0.0
    y2          c1_152_2    0.8241274538113169        c1_153_2    0.8598720764197572
    y2          c1_166_2    0.03985456685485922       c1_167_2    0.0
    y2          c1_171_2    0.7431221742325951        c1_179_2    0.0
    y2          c1_186_2    0.8541805171523625        c1_202_2    0.8622312125114441
    y2          c1_205_2    0.5252060099942356        c1_206_2    0.49371472569673824
    y2          c1_207_2    0.8004116469315168        c1_210_2    0.5935445064698334
    y2          c1_221_2    0.0                       c1_233_2    0.8334068307823592
    y2          c1_235_2    0.31144206926551865       c1_238_2    0.8161467982758006
    y2          c1_239_2    0.744549690767426         c1_241_2    0.1692534362621113
    y2          c1_244_2    0.8555298664397463        c1_247_2    0.6784631654770273
    y2          c1_258_2    0.34195379221869693       c1_261_2    0.544444511506981
    y2          c1_266_2    0.0                       c1_279_2    0.856940934283476
    y2          c1_280_2    0.8588536160193347        c1_288_2    0.5441895764934517
    y2          c1_292_2    0.8236700561132985        c1_298_2    0.40457187953683404
    y2          c1_300_2    0.0                       c1_306_2    0.0
    y2          c1_309_2    0.5948860089398562        c1_313_2    0.8537713022502089
    y2          c1_315_2    0.0                       c1_320_2    0.6891553971394792
    y2          c1_322_2    0.8179062385445672        c1_325_2    0.7085696510355723
    y2          c1_336_2    0.863374724614782         c1_339_2    0.7207866252402634
    y2          c1_348_2    0.0                       c1_349_2    0.27277373053782905
    y2          c1_352_2    0.7808968758978803        c1_357_2    0.0
    y2          c1_358_2    0.5738255093648306        c1_365_2    0.29321955465517313
    y2          c1_378_2    0.27488992269592927       c1_389_2    0.790507932431625
    y2          c1_395_2    0.0                       c1_396_2    0.862168723898279
    y2          c1_409_2    0.1966144541114958        c1_412_2    0.8026374393827025
    y2          c1_414_2    0.08936521170897505       c1_427_2    0.7509648420338051
    y2          c1_431_2    0.6520343362556759        c1_435_2    0.3342811143970216
    y2          c1_436_2    0.0                       c1_437_2    0.8172448054096597
    y2          c1_439_2    0.7664042786525996        c1_451_2    0.8559962188793366
    y2          c1_452_2    0.7410198973523708        c1_457_2    0.5159765960969431
    y2          c1_459_2    0.58645538136786          c1_468_2    0.03877862961292433
    y2          c1_470_2    0.6579142455772891        c1_473_2    0.0
    y2          c1_479_2    0.0                       c1_484_2    0.811003019612386
    y2          c1_486_2    0.7942692889982409        c1_489_2    0.6180391293771184
    y2          c1_491_2    0.0                       c1_496_2    0.7759681950329349
    y2          c1_499_2    0.6142186031411034        c2_1        -0.9069108405339379
    y2          c2_4        -0.17062892761505455      c2_5        -0.3443297487470823
    y2          c2_6        -1.0                      c2_8        -0.4232471157291
    y2          c2_10       -0.2787717645332327       c2_12       -0.1890926652918987
    y2          c2_15       -0.1639987940153723       c2_30       -0.16219594980574287
    y2          c2_35       -1.0                      c2_42       -0.4385080008621379
    y2          c2_43       -0.46916799778259366      c2_45       -0.35763125538323093
    y2          c2_52       -1.0                      c2_57       -0.7084281041159944
    y2          c2_58       -0.7689627870194728       c2_61       -0.18360278452246553
    y2          c2_66       -0.14316390139796617      c2_80       -0.14932406064452303
    y2          c2_83       -1.0                      c2_90       -1.0
    y2          c2_99       -0.17965325827879872      c2_101      -0.29936772001495265
    y2          c2_108      -0.43442846681644853      c2_109      -0.6955588403366206
    y2          c2_118      -0.872091526264407        c2_123      -0.7347001613323143
    y2          c2_130      -0.19757507910254168      c2_134      -1.0
    y2          c2_148      -1.0                      c2_152      -0.1758725461886831
    y2          c2_153      -0.1401279235802428       c2_166      -0.9601454331451408
    y2          c2_167      -1.0                      c2_171      -0.2568778257674049
    y2          c2_179      -1.0                      c2_186      -0.14581948284763746
    y2          c2_202      -0.13776878748855592      c2_205      -0.4747939900057644
    y2          c2_206      -0.5062852743032618       c2_207      -0.19958835306848324
    y2          c2_210      -0.40645549353016663      c2_221      -1.0
    y2          c2_233      -0.16659316921764072      c2_235      -0.6885579307344813
    y2          c2_238      -0.18385320172419942      c2_239      -0.25545030923257395
    y2          c2_241      -0.8307465637378887       c2_244      -0.14447013356025376
    y2          c2_247      -0.32153683452297266      c2_258      -0.6580462077813031
    y2          c2_261      -0.45555548849301897      c2_266      -1.0
    y2          c2_279      -0.14305906571652408      c2_280      -0.14114638398066526
    y2          c2_288      -0.4558104235065483       c2_292      -0.17632994388670156
    y2          c2_298      -0.595428120463166        c2_300      -1.0
    y2          c2_306      -1.0                      c2_309      -0.40511399106014373
    y2          c2_313      -0.14622869774979103      c2_315      -1.0
    y2          c2_320      -0.31084460286052085      c2_322      -0.1820937614554328
    y2          c2_325      -0.29143034896442765      c2_336      -0.136625275385218
    y2          c2_339      -0.2792133747597366       c2_348      -1.0
    y2          c2_349      -0.727226269462171        c2_352      -0.2191031241021198
    y2          c2_357      -1.0                      c2_358      -0.42617449063516943
    y2          c2_365      -0.7067804453448269       c2_378      -0.7251100773040707
    y2          c2_389      -0.209492067568375        c2_395      -1.0
    y2          c2_396      -0.137831276101721        c2_409      -0.8033855458885042
    y2          c2_412      -0.19736256061729746      c2_414      -0.910634788291025
    y2          c2_427      -0.24903515796619494      c2_431      -0.34796566374432414
    y2          c2_435      -0.6657188856029784       c2_436      -1.0
    y2          c2_437      -0.18275519459034026      c2_439      -0.23359572134740036
    y2          c2_451      -0.1440037811206634       c2_452      -0.25898010264762916
    y2          c2_457      -0.4840234039030569       c2_459      -0.41354461863214
    y2          c2_468      -0.9612213703870757       c2_470      -0.34208575442271094
    y2          c2_473      -1.0                      c2_479      -1.0
    y2          c2_484      -0.188996980387614        c2_486      -0.20573071100175913
    y2          c2_489      -0.3819608706228816       c2_491      -1.0
    y2          c2_496      -0.2240318049670651       c2_499      -0.3857813968588966
    y2          budget      1.0                       link2       1.0
    y3          c1_1_3      0.0                       c1_5_3      0.6794347969847003
    y3          c1_34_3     0.13959987933553208       c1_35_3     0.8362875316236981
    y3          c1_44_3     0.7394753381392907        c1_45_3     0.0
    y3          c1_61_3     0.0                       c1_78_3     0.0
    y3          c1_86_3     0.8431663411056453        c1_90_3     0.7737707238404999
    y3          c1_94_3     0.0                       c1_99_3     0.3543730439741044
    y3          c1_100_3    0.5873736578369628        c1_101_3    0.5656847002116514
    y3          c1_102_3    0.848704898615007         c1_115_3    0.0
    y3          c1_122_3    0.8402896267912643        c1_126_3    0.0
    y3          c1_127_3    0.7008013749791937        c1_129_3    0.5953673632025022
    y3          c1_130_3    0.23023317417609213       c1_134_3    0.848833317120148
    y3          c1_164_3    0.2823619377601785        c1_167_3    0.7735065564884372
    y3          c1_169_3    0.0                       c1_170_3    0.8281798887783599
    y3          c1_186_3    0.5318870107337906        c1_190_3    0.0
    y3          c1_210_3    0.0                       c1_215_3    0.4486390319226353
    y3          c1_221_3    0.2921287985205394        c1_225_3    0.0
    y3          c1_226_3    0.6205221773314249        c1_233_3    0.0
    y3          c1_241_3    0.3876793642536348        c1_242_3    0.0
    y3          c1_247_3    0.847812596662304         c1_249_3    0.795004258578596
    y3          c1_253_3    0.0                       c1_258_3    0.801155595392795
    y3          c1_259_3    0.8017720902727846        c1_269_3    0.5445853738782794
    y3          c1_272_3    0.0                       c1_273_3    0.0
    y3          c1_279_3    0.0                       c1_287_3    0.4256545946044442
    y3          c1_289_3    0.0                       c1_299_3    0.0
    y3          c1_300_3    0.5770776536560256        c1_301_3    0.7059336001765646
    y3          c1_309_3    0.688534960113204         c1_319_3    0.0
    y3          c1_320_3    0.0                       c1_339_3    0.0
    y3          c1_349_3    0.11116579211295374       c1_352_3    0.0
    y3          c1_357_3    0.7191535857668778        c1_367_3    0.431515779646759
    y3          c1_396_3    0.22150932061961615       c1_402_3    0.7754271759491453
    y3          c1_403_3    0.7459843545385856        c1_409_3    0.7597417014873549
    y3          c1_412_3    0.0                       c1_422_3    0.48535917747702506
    y3          c1_431_3    0.5015798579859285        c1_451_3    0.0
    y3          c1_452_3    0.00773153775531199       c1_457_3    0.0
    y3          c1_459_3    0.0                       c1_465_3    0.7814961460181166
    y3          c1_473_3    0.4061963617082549        c1_484_3    0.8367347903467544
    y3          c1_488_3    0.0                       c1_491_3    0.5526102433278375
    y3          c1_494_3    0.7354416565495397        c1_499_3    0.6584899133742734
    y3          c2_1        -1.0                      c2_5        -0.3205652030152997
    y3          c2_34       -0.8604001206644679       c2_35       -0.16371246837630196
    y3          c2_44       -0.26052466186070933      c2_45       -1.0
    y3          c2_61       -1.0                      c2_78       -1.0
    y3          c2_86       -0.15683365889435472      c2_90       -0.22622927615950003
    y3          c2_94       -1.0                      c2_99       -0.6456269560258956
    y3          c2_100      -0.41262634216303723      c2_101      -0.4343152997883486
    y3          c2_102      -0.15129510138499305      c2_115      -1.0
    y3          c2_122      -0.15971037320873577      c2_126      -1.0
    y3          c2_127      -0.29919862502080635      c2_129      -0.40463263679749784
    y3          c2_130      -0.7697668258239079       c2_134      -0.151166682879852
    y3          c2_164      -0.7176380622398215       c2_167      -0.22649344351156275
    y3          c2_169      -1.0                      c2_170      -0.1718201112216401
    y3          c2_186      -0.46811298926620937      c2_190      -1.0
    y3          c2_210      -1.0                      c2_215      -0.5513609680773647
    y3          c2_221      -0.7078712014794606       c2_225      -1.0
    y3          c2_226      -0.37947782266857516      c2_233      -1.0
    y3          c2_241      -0.6123206357463652       c2_242      -1.0
    y3          c2_247      -0.15218740333769593      c2_249      -0.20499574142140398
    y3          c2_253      -1.0                      c2_258      -0.198844404607205
    y3          c2_259      -0.19822790972721535      c2_269      -0.45541462612172057
    y3          c2_272      -1.0                      c2_273      -1.0
    y3          c2_279      -1.0                      c2_287      -0.5743454053955558
    y3          c2_289      -1.0                      c2_299      -1.0
    y3          c2_300      -0.42292234634397435      c2_301      -0.29406639982343535
    y3          c2_309      -0.31146503988679597      c2_319      -1.0
    y3          c2_320      -1.0                      c2_339      -1.0
    y3          c2_349      -0.8888342078870463       c2_352      -1.0
    y3          c2_357      -0.28084641423312223      c2_367      -0.568484220353241
    y3          c2_396      -0.7784906793803839       c2_402      -0.22457282405085463
    y3          c2_403      -0.25401564546141436      c2_409      -0.2402582985126451
    y3          c2_412      -1.0                      c2_422      -0.5146408225229749
    y3          c2_431      -0.4984201420140714       c2_451      -1.0
    y3          c2_452      -0.992268462244688        c2_457      -1.0
    y3          c2_459      -1.0                      c2_465      -0.21850385398188343
    y3          c2_473      -0.5938036382917451       c2_484      -0.16326520965324567
    y3          c2_488      -1.0                      c2_491      -0.4473897566721626
    y3          c2_494      -0.26455834345046025      c2_499      -0.3415100866257266
    y3          budget      1.0                       link3       1.0
    y4          c1_25_4     0.0                       c1_26_4     0.7346927512016077
    y4          c1_47_4     0.22624448850986123       c1_48_4     0.703440983457345
    y4          c1_50_4     0.8632235026408075        c1_51_4     0.8519023433867706
    y4          c1_60_4     0.0                       c1_68_4     0.8061734736646292
    y4          c1_77_4     0.7760740429099333        c1_82_4     0.7737166417690973
    y4          c1_84_4     0.8105434069333084        c1_87_4     0.821877676745512
    y4          c1_95_4     0.41140174238344307       c1_112_4    0.8185692899981004
    y4          c1_119_4    0.0                       c1_133_4    0.0
    y4          c1_136_4    0.7975566561535024        c1_172_4    0.0
    y4          c1_173_4    0.7981083355165284        c1_180_4    0.0
    y4          c1_181_4    0.5893685136256429        c1_192_4    0.0
    y4          c1_204_4    0.6531816292247898        c1_209_4    0.8481717841610578
    y4          c1_217_4    0.22769888499852564       c1_224_4    0.5829091361727635
    y4          c1_229_4    0.0                       c1_234_4    0.3639219733601343
    y4          c1_236_4    0.0                       c1_277_4    0.0
    y4          c1_296_4    0.8264745288781461        c1_311_4    0.0
    y4          c1_346_4    0.6521024410384662        c1_354_4    0.659990159408325
    y4          c1_364_4    0.0                       c1_366_4    0.11121194748156327
    y4          c1_370_4    0.0                       c1_373_4    0.0
    y4          c1_377_4    0.0                       c1_393_4    0.0
    y4          c1_399_4    0.853388576845726         c1_407_4    0.49978180963150176
    y4          c1_413_4    0.7719120497810591        c1_424_4    0.10861661286392077
    y4          c1_425_4    0.6748478292092033        c1_430_4    0.8362596077164536
    y4          c1_432_4    0.44443371410511123       c1_438_4    0.8565830063308961
    y4          c1_440_4    0.29710697947303655       c1_447_4    0.6770749867012051
    y4          c1_449_4    0.717012281744337         c1_454_4    0.8341053896477317
    y4          c1_463_4    0.8251565949173799        c1_476_4    0.0
    y4          c1_477_4    0.5703887812115734        c1_482_4    0.0
    y4          c2_25       -1.0                      c2_26       -0.26530724879839235
    y4          c2_47       -0.7737555114901388       c2_48       -0.2965590165426551
    y4          c2_50       -0.13677649735919253      c2_51       -0.14809765661322938
    y4          c2_60       -1.0                      c2_68       -0.1938265263353708
    y4          c2_77       -0.22392595709006666      c2_82       -0.2262833582309027
    y4          c2_84       -0.18945659306669158      c2_87       -0.178122323254488
    y4          c2_95       -0.5885982576165569       c2_112      -0.18143071000189956
    y4          c2_119      -1.0                      c2_133      -1.0
    y4          c2_136      -0.20244334384649768      c2_172      -1.0
    y4          c2_173      -0.20189166448347168      c2_180      -1.0
    y4          c2_181      -0.4106314863743571       c2_192      -1.0
    y4          c2_204      -0.3468183707752102       c2_209      -0.1518282158389422
    y4          c2_217      -0.7723011150014744       c2_224      -0.4170908638272365
    y4          c2_229      -1.0                      c2_234      -0.6360780266398657
    y4          c2_236      -1.0                      c2_277      -1.0
    y4          c2_296      -0.17352547112185396      c2_311      -1.0
    y4          c2_346      -0.34789755896153385      c2_354      -0.34000984059167505
    y4          c2_364      -1.0                      c2_366      -0.8887880525184367
    y4          c2_370      -1.0                      c2_373      -1.0
    y4          c2_377      -1.0                      c2_393      -1.0
    y4          c2_399      -0.14661142315427397      c2_407      -0.5002181903684982
    y4          c2_413      -0.2280879502189409       c2_424      -0.8913833871360792
    y4          c2_425      -0.32515217079079667      c2_430      -0.16374039228354645
    y4          c2_432      -0.5555662858948888       c2_438      -0.14341699366910385
    y4          c2_440      -0.7028930205269635       c2_447      -0.3229250132987948
    y4          c2_449      -0.28298771825566305      c2_454      -0.1658946103522683
    y4          c2_463      -0.17484340508262008      c2_476      -1.0
    y4          c2_477      -0.42961121878842656      c2_482      -1.0
    y4          budget      1.0                       link4       1.0
    y5          c1_8_5      0.6323628394814949        c1_9_5      0.7090141367664207
    y5          c1_12_5     0.5658610600743565        c1_15_5     0.7957367967966154
    y5          c1_25_5     0.5993391162550856        c1_26_5     0.6322148138370098
    y5          c1_43_5     0.655285560670164         c1_46_5     0.8240298909683283
    y5          c1_47_5     0.013161985827966127      c1_48_5     0.0
    y5          c1_49_5     0.551291018903837         c1_50_5     0.0
    y5          c1_51_5     0.6356933470132475        c1_55_5     0.6348698525953111
    y5          c1_57_5     0.7663362040789998        c1_58_5     0.8273403971866494
    y5          c1_59_5     0.42548410560165173       c1_60_5     0.5876686304107337
    y5          c1_62_5     0.46946118936288983       c1_68_5     0.0
    y5          c1_70_5     0.0                       c1_82_5     0.38693564131516656
    y5          c1_83_5     0.8575703243646238        c1_84_5     0.749149324938168
    y5          c1_87_5     0.0                       c1_93_5     0.02730129653868163
    y5          c1_104_5    0.8387289431150684        c1_112_5    0.24963341737070055
    y5          c1_116_5    0.7329261132414041        c1_118_5    0.8151939371450658
    y5          c1_133_5    0.6134745686502903        c1_149_5    0.6822319810124636
    y5          c1_153_5    0.6259705047700415        c1_157_5    0.8232130148733201
    y5          c1_171_5    0.8462409341128407        c1_172_5    0.0
    y5          c1_173_5    0.17786794564237585       c1_174_5    0.6117917416265206
    y5          c1_175_5    0.7325539964061415        c1_176_5    0.0
    y5          c1_180_5    0.0                       c1_181_5    0.39525537558791246
    y5          c1_184_5    0.676858830134845         c1_192_5    0.0
    y5          c1_202_5    0.30673179185679467       c1_204_5    0.8000511724525188
    y5          c1_209_5    0.12612192519383236       c1_229_5    0.714220946725193
    y5          c1_234_5    0.48045129070921255       c1_236_5    0.34073624684768966
    y5          c1_246_5    0.3313702654571056        c1_247_5    0.8218136010585086
    y5          c1_261_5    0.6347242130810922        c1_286_5    0.0
    y5          c1_292_5    0.5818558121430913        c1_298_5    0.7958990706492675
    y5          c1_303_5    0.436039770565816         c1_311_5    0.769322294521572
    y5          c1_313_5    0.39282565287537397       c1_323_5    0.7274977662667812
    y5          c1_324_5    0.025599578288955538      c1_327_5    0.0
    y5          c1_328_5    0.0                       c1_333_5    0.06773660999897546
    y5          c1_346_5    0.0                       c1_354_5    0.40119927618092965
    y5          c1_363_5    0.6879221708711567        c1_364_5    0.47234338804423204
    y5          c1_366_5    0.08604064302540693       c1_370_5    0.0
    y5          c1_373_5    0.829912967276821         c1_392_5    0.5108237303217338
    y5          c1_393_5    0.7990845987090436        c1_394_5    0.857599369231388
    y5          c1_399_5    0.0                       c1_406_5    0.0
    y5          c1_407_5    0.0                       c1_413_5    0.0
    y5          c1_415_5    0.7654131543484517        c1_417_5    0.7356002114319089
    y5          c1_424_5    0.0                       c1_429_5    0.789931807522633
    y5          c1_430_5    0.8194475030512293        c1_432_5    0.5351658545526494
    y5          c1_433_5    0.673948270188082         c1_437_5    0.45090962914012367
    y5          c1_438_5    0.0                       c1_440_5    0.5159975437594018
    y5          c1_447_5    0.0                       c1_449_5    0.7151745652381241
    y5          c1_450_5    0.02327128514309984       c1_463_5    0.6653032636918961
    y5          c1_476_5    0.2112690656407007        c1_481_5    0.0
    y5          c1_482_5    0.03325565978103939       c2_8        -0.36763716051850515
    y5          c2_9        -0.2909858632335793       c2_12       -0.43413893992564345
    y5          c2_15       -0.2042632032033847       c2_25       -0.40066088374491443
    y5          c2_26       -0.3677851861629902       c2_43       -0.344714439329836
    y5          c2_46       -0.17597010903167165      c2_47       -0.9868380141720339
    y5          c2_48       -1.0                      c2_49       -0.448708981096163
    y5          c2_50       -1.0                      c2_51       -0.36430665298675247
    y5          c2_55       -0.3651301474046889       c2_57       -0.23366379592100014
    y5          c2_58       -0.17265960281335058      c2_59       -0.5745158943983483
    y5          c2_60       -0.41233136958926636      c2_62       -0.5305388106371102
    y5          c2_68       -1.0                      c2_70       -1.0
    y5          c2_82       -0.6130643586848334       c2_83       -0.14242967563537628
    y5          c2_84       -0.250850675061832        c2_87       -1.0
    y5          c2_93       -0.9726987034613184       c2_104      -0.1612710568849316
    y5          c2_112      -0.7503665826292995       c2_116      -0.2670738867585959
    y5          c2_118      -0.18480606285493417      c2_133      -0.38652543134970974
    y5          c2_149      -0.31776801898753637      c2_153      -0.3740294952299586
    y5          c2_157      -0.17678698512667984      c2_171      -0.1537590658871592
    y5          c2_172      -1.0                      c2_173      -0.8221320543576242
    y5          c2_174      -0.38820825837347933      c2_175      -0.2674460035938585
    y5          c2_176      -1.0                      c2_180      -1.0
    y5          c2_181      -0.6047446244120875       c2_184      -0.32314116986515495
    y5          c2_192      -1.0                      c2_202      -0.6932682081432053
    y5          c2_204      -0.19994882754748117      c2_209      -0.8738780748061676
    y5          c2_229      -0.28577905327480707      c2_234      -0.5195487092907874
    y5          c2_236      -0.6592637531523103       c2_246      -0.6686297345428944
    y5          c2_247      -0.1781863989414913       c2_261      -0.3652757869189079
    y5          c2_286      -1.0                      c2_292      -0.41814418785690866
    y5          c2_298      -0.2041009293507326       c2_303      -0.563960229434184
    y5          c2_311      -0.23067770547842803      c2_313      -0.607174347124626
    y5          c2_323      -0.27250223373321886      c2_324      -0.9744004217110445
    y5          c2_327      -1.0                      c2_328      -1.0
    y5          c2_333      -0.9322633900010245       c2_346      -1.0
    y5          c2_354      -0.5988007238190703       c2_363      -0.31207782912884324
    y5          c2_364      -0.527656611955768        c2_366      -0.9139593569745931
    y5          c2_370      -1.0                      c2_373      -0.17008703272317907
    y5          c2_392      -0.48917626967826616      c2_393      -0.20091540129095636
    y5          c2_394      -0.142400630768612        c2_399      -1.0
    y5          c2_406      -1.0                      c2_407      -1.0
    y5          c2_413      -1.0                      c2_415      -0.23458684565154833
    y5          c2_417      -0.2643997885680911       c2_424      -1.0
    y5          c2_429      -0.210068192477367        c2_430      -0.18055249694877076
    y5          c2_432      -0.4648341454473506       c2_433      -0.326051729811918
    y5          c2_437      -0.5490903708598763       c2_438      -1.0
    y5          c2_440      -0.4840024562405983       c2_447      -1.0
    y5          c2_449      -0.284825434761876        c2_450      -0.9767287148569002
    y5          c2_463      -0.33469673630810387      c2_476      -0.7887309343592993
    y5          c2_481      -1.0                      c2_482      -0.9667443402189606
    y5          budget      1.0                       link5       1.0
    y6          c1_1_6      0.5034293893927844        c1_34_6     0.0
    y6          c1_41_6     0.43255891368519195       c1_45_6     0.15474696924275955
    y6          c1_61_6     0.04497831467977498       c1_64_6     0.36416382029543104
    y6          c1_71_6     0.3781357120451112        c1_78_6     0.7383116835160282
    y6          c1_94_6     0.0                       c1_99_6     0.0
    y6          c1_100_6    0.0                       c1_115_6    0.697065341017767
    y6          c1_116_6    0.8612385492536825        c1_122_6    0.4525608488960636
    y6          c1_126_6    0.7746833436267253        c1_129_6    0.0
    y6          c1_153_6    0.8440813018085812        c1_157_6    0.8448405005456877
    y6          c1_164_6    0.0                       c1_167_6    0.8162388776816837
    y6          c1_169_6    0.4887104427830693        c1_178_6    0.7682323685613004
    y6          c1_182_6    0.8345619323431681        c1_190_6    0.3949170395374285
    y6          c1_210_6    0.7619793271880284        c1_213_6    0.8365477905324064
    y6          c1_219_6    0.40972839586245613       c1_221_6    0.8554966728448551
    y6          c1_225_6    0.0                       c1_226_6    0.0
    y6          c1_228_6    0.0702053307523518        c1_233_6    0.5574751683198709
    y6          c1_241_6    0.5050856730931585        c1_242_6    0.7808771050474258
    y6          c1_247_6    0.7348350736753257        c1_249_6    0.0
    y6          c1_253_6    0.0                       c1_258_6    0.7672039138132298
    y6          c1_259_6    0.0                       c1_263_6    0.4261419847743557
    y6          c1_269_6    0.0                       c1_272_6    0.0
    y6          c1_273_6    0.0                       c1_274_6    0.8618820916177428
    y6          c1_279_6    0.0                       c1_285_6    0.4569043563271833
    y6          c1_289_6    0.616988323934384         c1_299_6    0.5461811818018414
    y6          c1_301_6    0.0                       c1_307_6    0.6722515047400239
    y6          c1_309_6    0.5144230177663763        c1_319_6    0.0
    y6          c1_320_6    0.3272194089321484        c1_339_6    0.0
    y6          c1_349_6    0.8544920309313818        c1_350_6    0.5251532908414205
    y6          c1_352_6    0.5160569046251899        c1_353_6    0.05916261524023536
    y6          c1_357_6    0.8370436326923816        c1_379_6    0.7484045475351024
    y6          c1_412_6    0.0                       c1_422_6    0.0
    y6          c1_431_6    0.18211835306007162       c1_451_6    0.0
    y6          c1_452_6    0.0                       c1_457_6    0.09969842401627693
    y6          c1_459_6    0.8563983773125048        c1_464_6    0.5984727550751368
    y6          c1_473_6    0.7000503793006808        c1_488_6    0.0
    y6          c1_491_6    0.7844007392607123        c1_499_6    0.4532361007402389
    y6          c2_1        -0.49657061060721563      c2_34       -1.0
    y6          c2_41       -0.567441086314808        c2_45       -0.8452530307572405
    y6          c2_61       -0.955021685320225        c2_64       -0.635836179704569
    y6          c2_71       -0.6218642879548888       c2_78       -0.2616883164839719
    y6          c2_94       -1.0                      c2_99       -1.0
    y6          c2_100      -1.0                      c2_115      -0.3029346589822331
    y6          c2_116      -0.13876145074631754      c2_122      -0.5474391511039364
    y6          c2_126      -0.2253166563732747       c2_129      -1.0
    y6          c2_153      -0.15591869819141882      c2_157      -0.15515949945431226
    y6          c2_164      -1.0                      c2_167      -0.1837611223183163
    y6          c2_169      -0.5112895572169307       c2_178      -0.2317676314386996
    y6          c2_182      -0.1654380676568319       c2_190      -0.6050829604625715
    y6          c2_210      -0.2380206728119716       c2_213      -0.16345220946759367
    y6          c2_219      -0.5902716041375439       c2_221      -0.1445033271551449
    y6          c2_225      -1.0                      c2_226      -1.0
    y6          c2_228      -0.9297946692476482       c2_233      -0.44252483168012907
    y6          c2_241      -0.49491432690684145      c2_242      -0.21912289495257423
    y6          c2_247      -0.2651649263246743       c2_249      -1.0
    y6          c2_253      -1.0                      c2_258      -0.2327960861867702
    y6          c2_259      -1.0                      c2_263      -0.5738580152256443
    y6          c2_269      -1.0                      c2_272      -1.0
    y6          c2_273      -1.0                      c2_274      -0.13811790838225727
    y6          c2_279      -1.0                      c2_285      -0.5430956436728167
    y6          c2_289      -0.38301167606561604      c2_299      -0.45381881819815856
    y6          c2_301      -1.0                      c2_307      -0.3277484952599761
    y6          c2_309      -0.48557698223362367      c2_319      -1.0
    y6          c2_320      -0.6727805910678516       c2_339      -1.0
    y6          c2_349      -0.1455079690686182       c2_350      -0.4748467091585795
    y6          c2_352      -0.48394309537481         c2_353      -0.9408373847597646
    y6          c2_357      -0.16295636730761842      c2_379      -0.25159545246489756
    y6          c2_412      -1.0                      c2_422      -1.0
    y6          c2_431      -0.8178816469399284       c2_451      -1.0
    y6          c2_452      -1.0                      c2_457      -0.9003015759837231
    y6          c2_459      -0.14360162268749518      c2_464      -0.4015272449248633
    y6          c2_473      -0.2999496206993192       c2_488      -1.0
    y6          c2_491      -0.21559926073928767      c2_499      -0.5467638992597611
    y6          budget      1.0                       link6       1.0
    y7          c1_13_7     0.1665656425349623        c1_17_7     0.2939037735219331
    y7          c1_20_7     0.0                       c1_28_7     0.703306409747282
    y7          c1_29_7     0.7557752609911987        c1_37_7     0.7937114105164013
    y7          c1_53_7     0.730003646855689         c1_56_7     0.7305837845811669
    y7          c1_76_7     0.17396584222021494       c1_88_7     0.7617144519529382
    y7          c1_92_7     0.0                       c1_105_7    0.7363477402596326
    y7          c1_120_7    0.42566051619355516       c1_141_7    0.855239696114902
    y7          c1_143_7    0.0                       c1_146_7    0.0
    y7          c1_150_7    0.6544149023620076        c1_151_7    0.706420385362857
    y7          c1_168_7    0.6868272678319238        c1_177_7    0.5340188006060673
    y7          c1_189_7    0.0                       c1_196_7    0.37660475564958906
    y7          c1_197_7    0.7428059230293558        c1_198_7    0.0
    y7          c1_216_7    0.49869592234510607       c1_222_7    0.5533018511550398
    y7          c1_230_7    0.6620887474397208        c1_245_7    0.8580741126633226
    y7          c1_255_7    0.8497994352055028        c1_257_7    0.11696879484039846
    y7          c1_283_7    0.0                       c1_290_7    0.8552934674479032
    y7          c1_293_7    0.8531629257065749        c1_297_7    0.844843393901315
    y7          c1_305_7    0.27747467832277617       c1_308_7    0.0
    y7          c1_316_7    0.5672148508492866        c1_321_7    0.5716217467859062
    y7          c1_338_7    0.06090692934876185       c1_341_7    0.0
    y7          c1_342_7    0.23177424149543446       c1_343_7    0.6042691894961483
    y7          c1_347_7    0.08674271485728757       c1_359_7    0.0
    y7          c1_361_7    0.0                       c1_376_7    0.3823477346320199
    y7          c1_382_7    0.0                       c1_383_7    0.7772918131121277
    y7          c1_397_7    0.0                       c1_423_7    0.548428555539316
    y7          c1_441_7    0.13671133627883114       c1_443_7    0.8317854047571837
    y7          c1_444_7    0.0                       c1_456_7    0.8555878162791741
    y7          c1_458_7    0.7854339474216795        c1_460_7    0.29294557949556277
    y7          c1_466_7    0.7404140676988602        c1_485_7    0.8068126643600992
    y7          c2_13       -0.8334343574650377       c2_17       -0.7060962264780669
    y7          c2_20       -1.0                      c2_28       -0.296693590252718
    y7          c2_29       -0.24422473900880126      c2_37       -0.20628858948359874
    y7          c2_53       -0.269996353144311        c2_56       -0.26941621541883304
    y7          c2_76       -0.8260341577797851       c2_88       -0.23828554804706176
    y7          c2_92       -1.0                      c2_105      -0.2636522597403675
    y7          c2_120      -0.5743394838064448       c2_141      -0.144760303885098
    y7          c2_143      -1.0                      c2_146      -1.0
    y7          c2_150      -0.34558509763799244      c2_151      -0.293579614637143
    y7          c2_168      -0.31317273216807623      c2_177      -0.46598119939393273
    y7          c2_189      -1.0                      c2_196      -0.6233952443504109
    y7          c2_197      -0.25719407697064417      c2_198      -1.0
    y7          c2_216      -0.5013040776548939       c2_222      -0.4466981488449601
    y7          c2_230      -0.33791125256027915      c2_245      -0.14192588733667746
    y7          c2_255      -0.15020056479449717      c2_257      -0.8830312051596015
    y7          c2_283      -1.0                      c2_290      -0.14470653255209678
    y7          c2_293      -0.14683707429342507      c2_297      -0.15515660609868498
    y7          c2_305      -0.7225253216772238       c2_308      -1.0
    y7          c2_316      -0.4327851491507134       c2_321      -0.4283782532140939
    y7          c2_338      -0.9390930706512381       c2_341      -1.0
    y7          c2_342      -0.7682257585045655       c2_343      -0.39573081050385167
    y7          c2_347      -0.9132572851427124       c2_359      -1.0
    y7          c2_361      -1.0                      c2_376      -0.6176522653679801
    y7          c2_382      -1.0                      c2_383      -0.22270818688787233
    y7          c2_397      -1.0                      c2_423      -0.451571444460684
    y7          c2_441      -0.8632886637211689       c2_443      -0.16821459524281632
    y7          c2_444      -1.0                      c2_456      -0.14441218372082582
    y7          c2_458      -0.21456605257832054      c2_460      -0.7070544205044372
    y7          c2_466      -0.25958593230113974      c2_485      -0.1931873356399007
    y7          budget      1.0                       link7       1.0
    y8          c1_2_8      0.7115364896832805        c1_3_8      0.39181265532073806
    y8          c1_5_8      0.8293676694433804        c1_7_8      0.7061942444168954
    y8          c1_31_8     0.18377732589124907       c1_36_8     0.34128585552991064
    y8          c1_44_8     0.7848575839126226        c1_63_8     0.0
    y8          c1_65_8     0.010230497635022595      c1_66_8     0.8493792411858582
    y8          c1_67_8     0.0                       c1_80_8     0.8408002484317975
    y8          c1_86_8     0.6326195288391525        c1_97_8     0.0
    y8          c1_101_8    0.8403992050136418        c1_102_8    0.6559307656172914
    y8          c1_121_8    0.0                       c1_127_8    0.8027275323840625
    y8          c1_138_8    0.0                       c1_155_8    0.39521424614940703
    y8          c1_156_8    0.10168248573970118       c1_170_8    0.5146710396185628
    y8          c1_186_8    0.7951450588138166        c1_187_8    0.0
    y8          c1_191_8    0.06542202098198602       c1_199_8    0.7803271371798501
    y8          c1_232_8    0.8365097424396315        c1_251_8    0.0
    y8          c1_260_8    0.547844452363158         c1_278_8    0.22321685396505186
    y8          c1_280_8    0.7331178678764692        c1_284_8    0.0
    y8          c1_331_8    0.0                       c1_332_8    0.8081155014772301
    y8          c1_344_8    0.0                       c1_351_8    0.0
    y8          c1_360_8    0.10390892059083523       c1_367_8    0.8288517727484106
    y8          c1_390_8    0.5970260812956754        c1_402_8    0.696687451409203
    y8          c1_403_8    0.6144185988570354        c1_411_8    0.0
    y8          c1_416_8    0.08532618234125344       c1_434_8    0.0
    y8          c1_461_8    0.03790165443859894       c1_465_8    0.8062255387254054
    y8          c1_474_8    0.0                       c1_484_8    0.648928457101799
    y8          c1_489_8    0.8505000551953322        c1_492_8    0.0
    y8          c1_494_8    0.7900172106198139        c2_2        -0.2884635103167194
    y8          c2_3        -0.6081873446792619       c2_5        -0.17063233055661967
    y8          c2_7        -0.29380575558310457      c2_31       -0.8162226741087509
    y8          c2_36       -0.6587141444700894       c2_44       -0.21514241608737739
    y8          c2_63       -1.0                      c2_65       -0.9897695023649774
    y8          c2_66       -0.15062075881414186      c2_67       -1.0
    y8          c2_80       -0.15919975156820257      c2_86       -0.3673804711608475
    y8          c2_97       -1.0                      c2_101      -0.15960079498635815
    y8          c2_102      -0.34406923438270864      c2_121      -1.0
    y8          c2_127      -0.19727246761593756      c2_138      -1.0
    y8          c2_155      -0.604785753850593        c2_156      -0.8983175142602988
    y8          c2_170      -0.48532896038143725      c2_186      -0.20485494118618344
    y8          c2_187      -1.0                      c2_191      -0.934577979018014
    y8          c2_199      -0.21967286282014986      c2_232      -0.16349025756036853
    y8          c2_251      -1.0                      c2_260      -0.4521555476368419
    y8          c2_278      -0.7767831460349481       c2_280      -0.2668821321235309
    y8          c2_284      -1.0                      c2_331      -1.0
    y8          c2_332      -0.19188449852276987      c2_344      -1.0
    y8          c2_351      -1.0                      c2_360      -0.8960910794091648
    y8          c2_367      -0.17114822725158946      c2_390      -0.40297391870432464
    y8          c2_402      -0.30331254859079704      c2_403      -0.3855814011429646
    y8          c2_411      -1.0                      c2_416      -0.9146738176587466
    y8          c2_434      -1.0                      c2_461      -0.9620983455614011
    y8          c2_465      -0.19377446127459458      c2_474      -1.0
    y8          c2_484      -0.35107154289820103      c2_489      -0.14949994480466777
    y8          c2_492      -1.0                      c2_494      -0.20998278938018608
    y8          budget      1.0                       link8       1.0
    y9          c1_0_9      0.6955422472053432        c1_9_9      0.8279699711697954
    y9          c1_12_9     0.7596631375978826        c1_34_9     0.6867719493551745
    y9          c1_41_9     0.0                       c1_49_9     0.6612230656545883
    y9          c1_62_9     0.40968195680114705       c1_64_9     0.14552616868179635
    y9          c1_71_9     0.0                       c1_72_9     0.620208691168504
    y9          c1_94_9     0.807114972871558         c1_99_9     0.5962479106131496
    y9          c1_100_9    0.21177649558834055       c1_104_9    0.7236978882864367
    y9          c1_116_9    0.0                       c1_122_9    0.06113916380514406
    y9          c1_125_9    0.6290402342699748        c1_128_9    0.4876672256677572
    y9          c1_129_9    0.19471604734564285       c1_139_9    0.7057935539949715
    y9          c1_140_9    0.332670708551272         c1_149_9    0.37821831183548416
    y9          c1_153_9    0.6238889664485936        c1_157_9    0.0
    y9          c1_164_9    0.7259955269893724        c1_174_9    0.7260050457064438
    y9          c1_176_9    0.7821366365877844        c1_178_9    0.0
    y9          c1_182_9    0.0                       c1_200_9    0.7656971892987273
    y9          c1_213_9    0.0                       c1_214_9    0.597396159666935
    y9          c1_219_9    0.0                       c1_226_9    0.150214614081716
    y9          c1_227_9    0.6386781668791814        c1_228_9    0.0
    y9          c1_246_9    0.5931161971256151        c1_247_9    0.7392067323580194
    y9          c1_249_9    0.0                       c1_253_9    0.8339748105461307
    y9          c1_258_9    0.8640208422585297        c1_259_9    0.0
    y9          c1_263_9    0.0                       c1_269_9    0.28594952697449416
    y9          c1_271_9    0.6452944511221539        c1_273_9    0.8061157597966566
    y9          c1_274_9    0.0                       c1_285_9    0.0
    y9          c1_301_9    0.2405230405495039        c1_302_9    0.6268646442171018
    y9          c1_303_9    0.44262246497187263       c1_307_9    0.0
    y9          c1_309_9    0.7506815568901961        c1_310_9    0.0
    y9          c1_313_9    0.7748615903079523        c1_324_9    0.7970040846315343
    y9          c1_327_9    0.7317871557620543        c1_333_9    0.8178854480795821
    y9          c1_339_9    0.8536043016137447        c1_350_9    0.0
    y9          c1_353_9    0.17667159315386716       c1_363_9    0.5231323525459919
    y9          c1_372_9    0.0                       c1_374_9    0.6513595696790611
    y9          c1_379_9    0.0                       c1_381_9    0.0
    y9          c1_387_9    0.6706946703523162        c1_392_9    0.3684693679208958
    y9          c1_394_9    0.285691477961999         c1_406_9    0.7917079515170109
    y9          c1_415_9    0.4481676306253881        c1_417_9    0.69803296398399
    y9          c1_420_9    0.4024038138192436        c1_422_9    0.6368731149212995
    y9          c1_429_9    0.600573607284624         c1_431_9    0.7277440827939439
    y9          c1_433_9    0.014630472232943004      c1_438_9    0.8458312097549008
    y9          c1_442_9    0.0                       c1_452_9    0.7569730057275167
    y9          c1_464_9    0.0                       c1_469_9    0.0
    y9          c1_480_9    0.3039407321193528        c1_483_9    0.0
    y9          c1_499_9    0.7379093494757154        c2_0        -0.30445775279465687
    y9          c2_9        -0.17203002883020452      c2_12       -0.24033686240211732
    y9          c2_34       -0.31322805064482545      c2_41       -1.0
    y9          c2_49       -0.33877693434541173      c2_62       -0.590318043198853
    y9          c2_64       -0.8544738313182036       c2_71       -1.0
    y9          c2_72       -0.37979130883149603      c2_94       -0.19288502712844205
    y9          c2_99       -0.40375208938685037      c2_100      -0.7882235044116594
    y9          c2_104      -0.2763021117135634       c2_116      -1.0
    y9          c2_122      -0.9388608361948559       c2_125      -0.3709597657300252
    y9          c2_128      -0.5123327743322428       c2_129      -0.8052839526543571
    y9          c2_139      -0.29420644600502854      c2_140      -0.667329291448728
    y9          c2_149      -0.6217816881645158       c2_153      -0.3761110335514064
    y9          c2_157      -1.0                      c2_164      -0.2740044730106276
    y9          c2_174      -0.2739949542935563       c2_176      -0.21786336341221563
    y9          c2_178      -1.0                      c2_182      -1.0
    y9          c2_200      -0.2343028107012727       c2_213      -1.0
    y9          c2_214      -0.4026038403330649       c2_219      -1.0
    y9          c2_226      -0.849785385918284        c2_227      -0.3613218331208185
    y9          c2_228      -1.0                      c2_246      -0.4068838028743848
    y9          c2_247      -0.2607932676419807       c2_249      -1.0
    y9          c2_253      -0.16602518945386938      c2_258      -0.13597915774147032
    y9          c2_259      -1.0                      c2_263      -1.0
    y9          c2_269      -0.7140504730255058       c2_271      -0.35470554887784606
    y9          c2_273      -0.19388424020334344      c2_274      -1.0
    y9          c2_285      -1.0                      c2_301      -0.7594769594504961
    y9          c2_302      -0.3731353557828983       c2_303      -0.5573775350281274
    y9          c2_307      -1.0                      c2_309      -0.24931844310980383
    y9          c2_310      -1.0                      c2_313      -0.22513840969204765
    y9          c2_324      -0.20299591536846576      c2_327      -0.2682128442379456
    y9          c2_333      -0.1821145519204179       c2_339      -0.14639569838625532
    y9          c2_350      -1.0                      c2_353      -0.8233284068461328
    y9          c2_363      -0.4768676474540081       c2_372      -1.0
    y9          c2_374      -0.348640430320939        c2_379      -1.0
    y9          c2_381      -1.0                      c2_387      -0.32930532964768383
    y9          c2_392      -0.6315306320791042       c2_394      -0.714308522038001
    y9          c2_406      -0.20829204848298905      c2_415      -0.5518323693746119
    y9          c2_417      -0.3019670360160101       c2_420      -0.5975961861807564
    y9          c2_422      -0.3631268850787005       c2_429      -0.39942639271537606
    y9          c2_431      -0.27225591720605613      c2_433      -0.985369527767057
    y9          c2_438      -0.15416879024509916      c2_442      -1.0
    y9          c2_452      -0.24302699427248328      c2_464      -1.0
    y9          c2_469      -1.0                      c2_480      -0.6960592678806472
    y9          c2_483      -1.0                      c2_499      -0.2620906505242846
    y9          budget      1.0                       link9       1.0
    MARKER                'MARKER'                 'INTEND'
    r0          cover       5.0                       c1_0_9      1.0
    r0          c2_0        1.0
    r1          cover       1.0                       c1_1_0      1.0
    r1          c1_1_2      1.0                       c1_1_3      1.0
    r1          c1_1_6      1.0                       c2_1        1.0
    r2          cover       4.0                       c1_2_8      1.0
    r2          c2_2        1.0
    r3          cover       3.0                       c1_3_8      1.0
    r3          c2_3        1.0
    r4          cover       5.0                       c1_4_1      1.0
    r4          c1_4_2      1.0                       c2_4        1.0
    r5          cover       3.0                       c1_5_2      1.0
    r5          c1_5_3      1.0                       c1_5_8      1.0
    r5          c2_5        1.0
    r6          cover       1.0                       c1_6_0      1.0
    r6          c1_6_1      1.0                       c1_6_2      1.0
    r6          c2_6        1.0
    r7          cover       2.0                       c1_7_8      1.0
    r7          c2_7        1.0
    r8          cover       5.0                       c1_8_0      1.0
    r8          c1_8_1      1.0                       c1_8_2      1.0
    r8          c1_8_5      1.0                       c2_8        1.0
    r9          cover       1.0                       c1_9_5      1.0
    r9          c1_9_9      1.0                       c2_9        1.0
    r10         cover       1.0                       c1_10_1     1.0
    r10         c1_10_2     1.0                       c2_10       1.0
    r11         cover       2.0                       c2_11       1.0
    r12         cover       2.0                       c1_12_0     1.0
    r12         c1_12_1     1.0                       c1_12_2     1.0
    r12         c1_12_5     1.0                       c1_12_9     1.0
    r12         c2_12       1.0
    r13         cover       1.0                       c1_13_7     1.0
    r13         c2_13       1.0
    r14         cover       2.0                       c2_14       1.0
    r15         cover       5.0                       c1_15_1     1.0
    r15         c1_15_2     1.0                       c1_15_5     1.0
    r15         c2_15       1.0
    r16         cover       2.0                       c2_16       1.0
    r17         cover       5.0                       c1_17_7     1.0
    r17         c2_17       1.0
    r18         cover       1.0                       c2_18       1.0
    r19         cover       4.0                       c2_19       1.0
    r20         cover       1.0                       c1_20_7     1.0
    r20         c2_20       1.0
    r21         cover       1.0                       c2_21       1.0
    r22         cover       1.0                       c2_22       1.0
    r23         cover       5.0                       c2_23       1.0
    r24         cover       4.0                       c2_24       1.0
    r25         cover       2.0                       c1_25_4     1.0
    r25         c1_25_5     1.0                       c2_25       1.0
    r26         cover       3.0                       c1_26_4     1.0
    r26         c1_26_5     1.0                       c2_26       1.0
    r27         cover       5.0                       c2_27       1.0
    r28         cover       1.0                       c1_28_7     1.0
    r28         c2_28       1.0
    r29         cover       1.0                       c1_29_7     1.0
    r29         c2_29       1.0
    r30         cover       3.0                       c1_30_2     1.0
    r30         c2_30       1.0
    r31         cover       2.0                       c1_31_8     1.0
    r31         c2_31       1.0
    r32         cover       4.0                       c2_32       1.0
    r33         cover       1.0                       c2_33       1.0
    r34         cover       3.0                       c1_34_0     1.0
    r34         c1_34_3     1.0                       c1_34_6     1.0
    r34         c1_34_9     1.0                       c2_34       1.0
    r35         cover       1.0                       c1_35_0     1.0
    r35         c1_35_2     1.0                       c1_35_3     1.0
    r35         c2_35       1.0
    r36         cover       3.0                       c1_36_8     1.0
    r36         c2_36       1.0
    r37         cover       2.0                       c1_37_7     1.0
    r37         c2_37       1.0
    r38         cover       3.0                       c2_38       1.0
    r39         cover       1.0                       c2_39       1.0
    r40         cover       5.0                       c2_40       1.0
    r41         cover       2.0                       c1_41_6     1.0
    r41         c1_41_9     1.0                       c2_41       1.0
    r42         cover       3.0                       c1_42_2     1.0
    r42         c2_42       1.0
    r43         cover       5.0                       c1_43_0     1.0
    r43         c1_43_1     1.0                       c1_43_2     1.0
    r43         c1_43_5     1.0                       c2_43       1.0
    r44         cover       4.0                       c1_44_3     1.0
    r44         c1_44_8     1.0                       c2_44       1.0
    r45         cover       4.0                       c1_45_0     1.0
    r45         c1_45_2     1.0                       c1_45_3     1.0
    r45         c1_45_6     1.0                       c2_45       1.0
    r46         cover       3.0                       c1_46_1     1.0
    r46         c1_46_5     1.0                       c2_46       1.0
    r47         cover       2.0                       c1_47_1     1.0
    r47         c1_47_4     1.0                       c1_47_5     1.0
    r47         c2_47       1.0
    r48         cover       1.0                       c1_48_4     1.0
    r48         c1_48_5     1.0                       c2_48       1.0
    r49         cover       4.0                       c1_49_5     1.0
    r49         c1_49_9     1.0                       c2_49       1.0
    r50         cover       5.0                       c1_50_1     1.0
    r50         c1_50_4     1.0                       c1_50_5     1.0
    r50         c2_50       1.0
    r51         cover       5.0                       c1_51_4     1.0
    r51         c1_51_5     1.0                       c2_51       1.0
    r52         cover       5.0                       c1_52_0     1.0
    r52         c1_52_1     1.0                       c1_52_2     1.0
    r52         c2_52       1.0
    r53         cover       4.0                       c1_53_7     1.0
    r53         c2_53       1.0
    r54         cover       3.0                       c1_54_1     1.0
    r54         c2_54       1.0
    r55         cover       4.0                       c1_55_1     1.0
    r55         c1_55_5     1.0                       c2_55       1.0
    r56         cover       2.0                       c1_56_7     1.0
    r56         c2_56       1.0
    r57         cover       2.0                       c1_57_0     1.0
    r57         c1_57_1     1.0                       c1_57_2     1.0
    r57         c1_57_5     1.0                       c2_57       1.0
    r58         cover       3.0                       c1_58_0     1.0
    r58         c1_58_1     1.0                       c1_58_2     1.0
    r58         c1_58_5     1.0                       c2_58       1.0
    r59         cover       5.0                       c1_59_1     1.0
    r59         c1_59_5     1.0                       c2_59       1.0
    r60         cover       4.0                       c1_60_4     1.0
    r60         c1_60_5     1.0                       c2_60       1.0
    r61         cover       3.0                       c1_61_0     1.0
    r61         c1_61_2     1.0                       c1_61_3     1.0
    r61         c1_61_6     1.0                       c2_61       1.0
    r62         cover       1.0                       c1_62_0     1.0
    r62         c1_62_1     1.0                       c1_62_5     1.0
    r62         c1_62_9     1.0                       c2_62       1.0
    r63         cover       2.0                       c1_63_8     1.0
    r63         c2_63       1.0
    r64         cover       1.0                       c1_64_6     1.0
    r64         c1_64_9     1.0                       c2_64       1.0
    r65         cover       1.0                       c1_65_8     1.0
    r65         c2_65       1.0
    r66         cover       4.0                       c1_66_2     1.0
    r66         c1_66_8     1.0                       c2_66       1.0
    r67         cover       3.0                       c1_67_8     1.0
    r67         c2_67       1.0
    r68         cover       1.0                       c1_68_1     1.0
    r68         c1_68_4     1.0                       c1_68_5     1.0
    r68         c2_68       1.0
    r69         cover       1.0                       c2_69       1.0
    r70         cover       5.0                       c1_70_1     1.0
    r70         c1_70_5     1.0                       c2_70       1.0
    r71         cover       5.0                       c1_71_0     1.0
    r71         c1_71_6     1.0                       c1_71_9     1.0
    r71         c2_71       1.0
    r72         cover       1.0                       c1_72_9     1.0
    r72         c2_72       1.0
    r73         cover       4.0                       c2_73       1.0
    r74         cover       1.0                       c2_74       1.0
    r75         cover       2.0                       c2_75       1.0
    r76         cover       3.0                       c1_76_7     1.0
    r76         c2_76       1.0
    r77         cover       4.0                       c1_77_4     1.0
    r77         c2_77       1.0
    r78         cover       5.0                       c1_78_3     1.0
    r78         c1_78_6     1.0                       c2_78       1.0
    r79         cover       3.0                       c2_79       1.0
    r80         cover       2.0                       c1_80_2     1.0
    r80         c1_80_8     1.0                       c2_80       1.0
    r81         cover       4.0                       c2_81       1.0
    r82         cover       4.0                       c1_82_4     1.0
    r82         c1_82_5     1.0                       c2_82       1.0
    r83         cover       4.0                       c1_83_0     1.0
    r83         c1_83_1     1.0                       c1_83_2     1.0
    r83         c1_83_5     1.0                       c2_83       1.0
    r84         cover       5.0                       c1_84_1     1.0
    r84         c1_84_4     1.0                       c1_84_5     1.0
    r84         c2_84       1.0
    r85         cover       3.0                       c2_85       1.0
    r86         cover       2.0                       c1_86_3     1.0
    r86         c1_86_8     1.0                       c2_86       1.0
    r87         cover       1.0                       c1_87_1     1.0
    r87         c1_87_4     1.0                       c1_87_5     1.0
    r87         c2_87       1.0
    r88         cover       1.0                       c1_88_7     1.0
    r88         c2_88       1.0
    r89         cover       1.0                       c2_89       1.0
    r90         cover       3.0                       c1_90_0     1.0
    r90         c1_90_2     1.0                       c1_90_3     1.0
    r90         c2_90       1.0
    r91         cover       4.0                       c2_91       1.0
    r92         cover       2.0                       c1_92_7     1.0
    r92         c2_92       1.0
    r93         cover       5.0                       c1_93_1     1.0
    r93         c1_93_5     1.0                       c2_93       1.0
    r94         cover       4.0                       c1_94_0     1.0
    r94         c1_94_3     1.0                       c1_94_6     1.0
    r94         c1_94_9     1.0                       c2_94       1.0
    r95         cover       5.0                       c1_95_4     1.0
    r95         c2_95       1.0
    r96         cover       4.0                       c2_96       1.0
    r97         cover       1.0                       c1_97_8     1.0
    r97         c2_97       1.0
    r98         cover       4.0                       c2_98       1.0
    r99         cover       1.0                       c1_99_0     1.0
    r99         c1_99_2     1.0                       c1_99_3     1.0
    r99         c1_99_6     1.0                       c1_99_9     1.0
    r99         c2_99       1.0
    r100        cover       1.0                       c1_100_0    1.0
    r100        c1_100_3    1.0                       c1_100_6    1.0
    r100        c1_100_9    1.0                       c2_100      1.0
    r101        cover       2.0                       c1_101_2    1.0
    r101        c1_101_3    1.0                       c1_101_8    1.0
    r101        c2_101      1.0
    r102        cover       2.0                       c1_102_3    1.0
    r102        c1_102_8    1.0                       c2_102      1.0
    r103        cover       5.0                       c2_103      1.0
    r104        cover       5.0                       c1_104_5    1.0
    r104        c1_104_9    1.0                       c2_104      1.0
    r105        cover       3.0                       c1_105_7    1.0
    r105        c2_105      1.0
    r106        cover       3.0                       c2_106      1.0
    r107        cover       5.0                       c2_107      1.0
    r108        cover       2.0                       c1_108_1    1.0
    r108        c1_108_2    1.0                       c2_108      1.0
    r109        cover       1.0                       c1_109_2    1.0
    r109        c2_109      1.0
    r110        cover       3.0                       c2_110      1.0
    r111        cover       2.0                       c2_111      1.0
    r112        cover       1.0                       c1_112_1    1.0
    r112        c1_112_4    1.0                       c1_112_5    1.0
    r112        c2_112      1.0
    r113        cover       3.0                       c2_113      1.0
    r114        cover       2.0                       c2_114      1.0
    r115        cover       5.0                       c1_115_3    1.0
    r115        c1_115_6    1.0                       c2_115      1.0
    r116        cover       2.0                       c1_116_0    1.0
    r116        c1_116_1    1.0                       c1_116_5    1.0
    r116        c1_116_6    1.0                       c1_116_9    1.0
    r116        c2_116      1.0
    r117        cover       3.0                       c2_117      1.0
    r118        cover       1.0                       c1_118_0    1.0
    r118        c1_118_1    1.0                       c1_118_2    1.0
    r118        c1_118_5    1.0                       c2_118      1.0
    r119        cover       3.0                       c1_119_4    1.0
    r119        c2_119      1.0
    r120        cover       4.0                       c1_120_7    1.0
    r120        c2_120      1.0
    r121        cover       5.0                       c1_121_8    1.0
    r121        c2_121      1.0
    r122        cover       4.0                       c1_122_0    1.0
    r122        c1_122_1    1.0                       c1_122_3    1.0
    r122        c1_122_6    1.0                       c1_122_9    1.0
    r122        c2_122      1.0
    r123        cover       3.0                       c1_123_2    1.0
    r123        c2_123      1.0
    r124        cover       3.0                       c2_124      1.0
    r125        cover       2.0                       c1_125_9    1.0
    r125        c2_125      1.0
    r126        cover       2.0                       c1_126_3    1.0
    r126        c1_126_6    1.0                       c2_126      1.0
    r127        cover       4.0                       c1_127_3    1.0
    r127        c1_127_8    1.0                       c2_127      1.0
    r128        cover       2.0                       c1_128_9    1.0
    r128        c2_128      1.0
    r129        cover       2.0                       c1_129_0    1.0
    r129        c1_129_3    1.0                       c1_129_6    1.0
    r129        c1_129_9    1.0                       c2_129      1.0
    r130        cover       4.0                       c1_130_2    1.0
    r130        c1_130_3    1.0                       c2_130      1.0
    r131        cover       2.0                       c2_131      1.0
    r132        cover       4.0                       c2_132      1.0
    r133        cover       1.0                       c1_133_4    1.0
    r133        c1_133_5    1.0                       c2_133      1.0
    r134        cover       4.0                       c1_134_0    1.0
    r134        c1_134_1    1.0                       c1_134_2    1.0
    r134        c1_134_3    1.0                       c2_134      1.0
    r135        cover       2.0                       c2_135      1.0
    r136        cover       5.0                       c1_136_4    1.0
    r136        c2_136      1.0
    r137        cover       5.0                       c2_137      1.0
    r138        cover       4.0                       c1_138_8    1.0
    r138        c2_138      1.0
    r139        cover       5.0                       c1_139_9    1.0
    r139        c2_139      1.0
    r140        cover       5.0                       c1_140_9    1.0
    r140        c2_140      1.0
    r141        cover       2.0                       c1_141_7    1.0
    r141        c2_141      1.0
    r142        cover       1.0                       c2_142      1.0
    r143        cover       1.0                       c1_143_7    1.0
    r143        c2_143      1.0
    r144        cover       2.0                       c2_144      1.0
    r145        cover       1.0                       c2_145      1.0
    r146        cover       4.0                       c1_146_7    1.0
    r146        c2_146      1.0
    r147        cover       1.0                       c2_147      1.0
    r148        cover       5.0                       c1_148_0    1.0
    r148        c1_148_1    1.0                       c1_148_2    1.0
    r148        c2_148      1.0
    r149        cover       2.0                       c1_149_5    1.0
    r149        c1_149_9    1.0                       c2_149      1.0
    r150        cover       3.0                       c1_150_7    1.0
    r150        c2_150      1.0
    r151        cover       5.0                       c1_151_7    1.0
    r151        c2_151      1.0
    r152        cover       5.0                       c1_152_2    1.0
    r152        c2_152      1.0
    r153        cover       4.0                       c1_153_0    1.0
    r153        c1_153_1    1.0                       c1_153_2    1.0
    r153        c1_153_5    1.0                       c1_153_6    1.0
    r153        c1_153_9    1.0                       c2_153      1.0
    r154        cover       3.0                       c2_154      1.0
    r155        cover       4.0                       c1_155_8    1.0
    r155        c2_155      1.0
    r156        cover       2.0                       c1_156_8    1.0
    r156        c2_156      1.0
    r157        cover       3.0                       c1_157_0    1.0
    r157        c1_157_5    1.0                       c1_157_6    1.0
    r157        c1_157_9    1.0                       c2_157      1.0
    r158        cover       2.0                       c2_158      1.0
    r159        cover       1.0                       c2_159      1.0
    r160        cover       5.0                       c2_160      1.0
    r161        cover       1.0                       c2_161      1.0
    r162        cover       2.0                       c2_162      1.0
    r163        cover       4.0                       c1_163_1    1.0
    r163        c2_163      1.0
    r164        cover       5.0                       c1_164_0    1.0
    r164        c1_164_3    1.0                       c1_164_6    1.0
    r164        c1_164_9    1.0                       c2_164      1.0
    r165        cover       5.0                       c2_165      1.0
    r166        cover       3.0                       c1_166_0    1.0
    r166        c1_166_1    1.0                       c1_166_2    1.0
    r166        c2_166      1.0
    r167        cover       1.0                       c1_167_0    1.0
    r167        c1_167_1    1.0                       c1_167_2    1.0
    r167        c1_167_3    1.0                       c1_167_6    1.0
    r167        c2_167      1.0
    r168        cover       2.0                       c1_168_7    1.0
    r168        c2_168      1.0
    r169        cover       2.0                       c1_169_3    1.0
    r169        c1_169_6    1.0                       c2_169      1.0
    r170        cover       2.0                       c1_170_3    1.0
    r170        c1_170_8    1.0                       c2_170      1.0
    r171        cover       2.0                       c1_171_0    1.0
    r171        c1_171_1    1.0                       c1_171_2    1.0
    r171        c1_171_5    1.0                       c2_171      1.0
    r172        cover       4.0                       c1_172_4    1.0
    r172        c1_172_5    1.0                       c2_172      1.0
    r173        cover       2.0                       c1_173_1    1.0
    r173        c1_173_4    1.0                       c1_173_5    1.0
    r173        c2_173      1.0
    r174        cover       4.0                       c1_174_5    1.0
    r174        c1_174_9    1.0                       c2_174      1.0
    r175        cover       4.0                       c1_175_1    1.0
    r175        c1_175_5    1.0                       c2_175      1.0
    r176        cover       3.0                       c1_176_0    1.0
    r176        c1_176_1    1.0                       c1_176_5    1.0
    r176        c1_176_9    1.0                       c2_176      1.0
    r177        cover       3.0                       c1_177_7    1.0
    r177        c2_177      1.0
    r178        cover       1.0                       c1_178_6    1.0
    r178        c1_178_9    1.0                       c2_178      1.0
    r179        cover       2.0                       c1_179_0    1.0
    r179        c1_179_1    1.0                       c1_179_2    1.0
    r179        c2_179      1.0
    r180        cover       4.0                       c1_180_4    1.0
    r180        c1_180_5    1.0                       c2_180      1.0
    r181        cover       3.0                       c1_181_4    1.0
    r181        c1_181_5    1.0                       c2_181      1.0
    r182        cover       2.0                       c1_182_6    1.0
    r182        c1_182_9    1.0                       c2_182      1.0
    r183        cover       3.0                       c2_183      1.0
    r184        cover       3.0                       c1_184_1    1.0
    r184        c1_184_5    1.0                       c2_184      1.0
    r185        cover       1.0                       c2_185      1.0
    r186        cover       4.0                       c1_186_2    1.0
    r186        c1_186_3    1.0                       c1_186_8    1.0
    r186        c2_186      1.0
    r187        cover       4.0                       c1_187_8    1.0
    r187        c2_187      1.0
    r188        cover       3.0                       c2_188      1.0
    r189        cover       2.0                       c1_189_7    1.0
    r189        c2_189      1.0
    r190        cover       4.0                       c1_190_0    1.0
    r190        c1_190_3    1.0                       c1_190_6    1.0
    r190        c2_190      1.0
    r191        cover       1.0                       c1_191_8    1.0
    r191        c2_191      1.0
    r192        cover       4.0                       c1_192_4    1.0
    r192        c1_192_5    1.0                       c2_192      1.0
    r193        cover       1.0                       c2_193      1.0
    r194        cover       2.0                       c2_194      1.0
    r195        cover       3.0                       c2_195      1.0
    r196        cover       2.0                       c1_196_7    1.0
    r196        c2_196      1.0
    r197        cover       2.0                       c1_197_7    1.0
    r197        c2_197      1.0
    r198        cover       1.0                       c1_198_7    1.0
    r198        c2_198      1.0
    r199        cover       2.0                       c1_199_8    1.0
    r199        c2_199      1.0
    r200        cover       3.0                       c1_200_9    1.0
    r200        c2_200      1.0
    r201        cover       4.0                       c2_201      1.0
    r202        cover       1.0                       c1_202_0    1.0
    r202        c1_202_1    1.0                       c1_202_2    1.0
    r202        c1_202_5    1.0                       c2_202      1.0
    r203        cover       1.0                       c2_203      1.0
    r204        cover       2.0                       c1_204_4    1.0
    r204        c1_204_5    1.0                       c2_204      1.0
    r205        cover       2.0                       c1_205_2    1.0
    r205        c2_205      1.0
    r206        cover       2.0                       c1_206_2    1.0
    r206        c2_206      1.0
    r207        cover       5.0                       c1_207_1    1.0
    r207        c1_207_2    1.0                       c2_207      1.0
    r208        cover       3.0                       c1_208_1    1.0
    r208        c2_208      1.0
    r209        cover       2.0                       c1_209_1    1.0
    r209        c1_209_4    1.0                       c1_209_5    1.0
    r209        c2_209      1.0
    r210        cover       5.0                       c1_210_0    1.0
    r210        c1_210_2    1.0                       c1_210_3    1.0
    r210        c1_210_6    1.0                       c2_210      1.0
    r211        cover       1.0                       c2_211      1.0
    r212        cover       3.0                       c2_212      1.0
    r213        cover       5.0                       c1_213_6    1.0
    r213        c1_213_9    1.0                       c2_213      1.0
    r214        cover       1.0                       c1_214_9    1.0
    r214        c2_214      1.0
    r215        cover       4.0                       c1_215_3    1.0
    r215        c2_215      1.0
    r216        cover       4.0                       c1_216_7    1.0
    r216        c2_216      1.0
    r217        cover       3.0                       c1_217_4    1.0
    r217        c2_217      1.0
    r218        cover       5.0                       c2_218      1.0
    r219        cover       5.0                       c1_219_0    1.0
    r219        c1_219_6    1.0                       c1_219_9    1.0
    r219        c2_219      1.0
    r220        cover       1.0                       c2_220      1.0
    r221        cover       4.0                       c1_221_0    1.0
    r221        c1_221_2    1.0                       c1_221_3    1.0
    r221        c1_221_6    1.0                       c2_221      1.0
    r222        cover       4.0                       c1_222_7    1.0
    r222        c2_222      1.0
    r223        cover       2.0                       c2_223      1.0
    r224        cover       5.0                       c1_224_4    1.0
    r224        c2_224      1.0
    r225        cover       3.0                       c1_225_0    1.0
    r225        c1_225_3    1.0                       c1_225_6    1.0
    r225        c2_225      1.0
    r226        cover       4.0                       c1_226_0    1.0
    r226        c1_226_3    1.0                       c1_226_6    1.0
    r226        c1_226_9    1.0                       c2_226      1.0
    r227        cover       3.0                       c1_227_9    1.0
    r227        c2_227      1.0
    r228        cover       3.0                       c1_228_6    1.0
    r228        c1_228_9    1.0                       c2_228      1.0
    r229        cover       2.0                       c1_229_4    1.0
    r229        c1_229_5    1.0                       c2_229      1.0
    r230        cover       4.0                       c1_230_7    1.0
    r230        c2_230      1.0
    r231        cover       3.0                       c2_231      1.0
    r232        cover       4.0                       c1_232_8    1.0
    r232        c2_232      1.0
    r233        cover       2.0                       c1_233_0    1.0
    r233        c1_233_2    1.0                       c1_233_3    1.0
    r233        c1_233_6    1.0                       c2_233      1.0
    r234        cover       1.0                       c1_234_4    1.0
    r234        c1_234_5    1.0                       c2_234      1.0
    r235        cover       1.0                       c1_235_2    1.0
    r235        c2_235      1.0
    r236        cover       1.0                       c1_236_4    1.0
    r236        c1_236_5    1.0                       c2_236      1.0
    r237        cover       3.0                       c2_237      1.0
    r238        cover       3.0                       c1_238_1    1.0
    r238        c1_238_2    1.0                       c2_238      1.0
    r239        cover       3.0                       c1_239_2    1.0
    r239        c2_239      1.0
    r240        cover       4.0                       c2_240      1.0
    r241        cover       5.0                       c1_241_0    1.0
    r241        c1_241_1    1.0                       c1_241_2    1.0
    r241        c1_241_3    1.0                       c1_241_6    1.0
    r241        c2_241      1.0
    r242        cover       4.0                       c1_242_3    1.0
    r242        c1_242_6    1.0                       c2_242      1.0
    r243        cover       1.0                       c2_243      1.0
    r244        cover       5.0                       c1_244_2    1.0
    r244        c2_244      1.0
    r245        cover       2.0                       c1_245_7    1.0
    r245        c2_245      1.0
    r246        cover       5.0                       c1_246_0    1.0
    r246        c1_246_1    1.0                       c1_246_5    1.0
    r246        c1_246_9    1.0                       c2_246      1.0
    r247        cover       2.0                       c1_247_0    1.0
    r247        c1_247_1    1.0                       c1_247_2    1.0
    r247        c1_247_3    1.0                       c1_247_5    1.0
    r247        c1_247_6    1.0                       c1_247_9    1.0
    r247        c2_247      1.0
    r248        cover       3.0                       c2_248      1.0
    r249        cover       1.0                       c1_249_0    1.0
    r249        c1_249_3    1.0                       c1_249_6    1.0
    r249        c1_249_9    1.0                       c2_249      1.0
    r250        cover       3.0                       c2_250      1.0
    r251        cover       4.0                       c1_251_8    1.0
    r251        c2_251      1.0
    r252        cover       3.0                       c2_252      1.0
    r253        cover       3.0                       c1_253_0    1.0
    r253        c1_253_3    1.0                       c1_253_6    1.0
    r253        c1_253_9    1.0                       c2_253      1.0
    r254        cover       5.0                       c2_254      1.0
    r255        cover       2.0                       c1_255_7    1.0
    r255        c2_255      1.0
    r256        cover       1.0                       c1_256_1    1.0
    r256        c2_256      1.0
    r257        cover       3.0                       c1_257_7    1.0
    r257        c2_257      1.0
    r258        cover       3.0                       c1_258_0    1.0
    r258        c1_258_1    1.0                       c1_258_2    1.0
    r258        c1_258_3    1.0                       c1_258_6    1.0
    r258        c1_258_9    1.0                       c2_258      1.0
    r259        cover       2.0                       c1_259_0    1.0
    r259        c1_259_3    1.0                       c1_259_6    1.0
    r259        c1_259_9    1.0                       c2_259      1.0
    r260        cover       4.0                       c1_260_8    1.0
    r260        c2_260      1.0
    r261        cover       4.0                       c1_261_0    1.0
    r261        c1_261_1    1.0                       c1_261_2    1.0
    r261        c1_261_5    1.0                       c2_261      1.0
    r262        cover       5.0                       c2_262      1.0
    r263        cover       2.0                       c1_263_0    1.0
    r263        c1_263_6    1.0                       c1_263_9    1.0
    r263        c2_263      1.0
    r264        cover       3.0                       c1_264_1    1.0
    r264        c2_264      1.0
    r265        cover       4.0                       c2_265      1.0
    r266        cover       4.0                       c1_266_0    1.0
    r266        c1_266_1    1.0                       c1_266_2    1.0
    r266        c2_266      1.0
    r267        cover       1.0                       c2_267      1.0
    r268        cover       1.0                       c2_268      1.0
    r269        cover       5.0                       c1_269_0    1.0
    r269        c1_269_3    1.0                       c1_269_6    1.0
    r269        c1_269_9    1.0                       c2_269      1.0
    r270        cover       4.0                       c2_270      1.0
    r271        cover       4.0                       c1_271_9    1.0
    r271        c2_271      1.0
    r272        cover       2.0                       c1_272_0    1.0
    r272        c1_272_3    1.0                       c1_272_6    1.0
    r272        c2_272      1.0
    r273        cover       1.0                       c1_273_0    1.0
    r273        c1_273_3    1.0                       c1_273_6    1.0
    r273        c1_273_9    1.0                       c2_273      1.0
    r274        cover       1.0                       c1_274_6    1.0
    r274        c1_274_9    1.0                       c2_274      1.0
    r275        cover       4.0                       c2_275      1.0
    r276        cover       5.0                       c2_276      1.0
    r277        cover       4.0                       c1_277_4    1.0
    r277        c2_277      1.0
    r278        cover       3.0                       c1_278_8    1.0
    r278        c2_278      1.0
    r279        cover       1.0                       c1_279_0    1.0
    r279        c1_279_2    1.0                       c1_279_3    1.0
    r279        c1_279_6    1.0                       c2_279      1.0
    r280        cover       1.0                       c1_280_2    1.0
    r280        c1_280_8    1.0                       c2_280      1.0
    r281        cover       2.0                       c2_281      1.0
    r282        cover       5.0                       c2_282      1.0
    r283        cover       2.0                       c1_283_7    1.0
    r283        c2_283      1.0
    r284        cover       1.0                       c1_284_8    1.0
    r284        c2_284      1.0
    r285        cover       5.0                       c1_285_0    1.0
    r285        c1_285_6    1.0                       c1_285_9    1.0
    r285        c2_285      1.0
    r286        cover       4.0                       c1_286_0    1.0
    r286        c1_286_1    1.0                       c1_286_5    1.0
    r286        c2_286      1.0
    r287        cover       4.0                       c1_287_3    1.0
    r287        c2_287      1.0
    r288        cover       5.0                       c1_288_1    1.0
    r288        c1_288_2    1.0                       c2_288      1.0
    r289        cover       3.0                       c1_289_3    1.0
    r289        c1_289_6    1.0                       c2_289      1.0
    r290        cover       4.0                       c1_290_7    1.0
    r290        c2_290      1.0
    r291        cover       2.0                       c2_291      1.0
    r292        cover       4.0                       c1_292_0    1.0
    r292        c1_292_1    1.0                       c1_292_2    1.0
    r292        c1_292_5    1.0                       c2_292      1.0
    r293        cover       4.0                       c1_293_7    1.0
    r293        c2_293      1.0
    r294        cover       3.0                       c1_294_1    1.0
    r294        c2_294      1.0
    r295        cover       4.0                       c1_295_1    1.0
    r295        c2_295      1.0
    r296        cover       2.0                       c1_296_4    1.0
    r296        c2_296      1.0
    r297        cover       2.0                       c1_297_7    1.0
    r297        c2_297      1.0
    r298        cover       2.0                       c1_298_0    1.0
    r298        c1_298_1    1.0                       c1_298_2    1.0
    r298        c1_298_5    1.0                       c2_298      1.0
    r299        cover       1.0                       c1_299_3    1.0
    r299        c1_299_6    1.0                       c2_299      1.0
    r300        cover       4.0                       c1_300_0    1.0
    r300        c1_300_2    1.0                       c1_300_3    1.0
    r300        c2_300      1.0
    r301        cover       4.0                       c1_301_0    1.0
    r301        c1_301_3    1.0                       c1_301_6    1.0
    r301        c1_301_9    1.0                       c2_301      1.0
    r302        cover       5.0                       c1_302_9    1.0
    r302        c2_302      1.0
    r303        cover       3.0                       c1_303_0    1.0
    r303        c1_303_1    1.0                       c1_303_5    1.0
    r303        c1_303_9    1.0                       c2_303      1.0
    r304        cover       1.0                       c2_304      1.0
    r305        cover       4.0                       c1_305_7    1.0
    r305        c2_305      1.0
    r306        cover       2.0                       c1_306_0    1.0
    r306        c1_306_1    1.0                       c1_306_2    1.0
    r306        c2_306      1.0
    r307        cover       1.0                       c1_307_6    1.0
    r307        c1_307_9    1.0                       c2_307      1.0
    r308        cover       1.0                       c1_308_7    1.0
    r308        c2_308      1.0
    r309        cover       2.0                       c1_309_0    1.0
    r309        c1_309_1    1.0                       c1_309_2    1.0
    r309        c1_309_3    1.0                       c1_309_6    1.0
    r309        c1_309_9    1.0                       c2_309      1.0
    r310        cover       5.0                       c1_310_9    1.0
    r310        c2_310      1.0
    r311        cover       4.0                       c1_311_4    1.0
    r311        c1_311_5    1.0                       c2_311      1.0
    r312        cover       3.0                       c2_312      1.0
    r313        cover       5.0                       c1_313_0    1.0
    r313        c1_313_1    1.0                       c1_313_2    1.0
    r313        c1_313_5    1.0                       c1_313_9    1.0
    r313        c2_313      1.0
    r314        cover       3.0                       c2_314      1.0
    r315        cover       3.0                       c1_315_0    1.0
    r315        c1_315_1    1.0                       c1_315_2    1.0
    r315        c2_315      1.0
    r316        cover       4.0                       c1_316_7    1.0
    r316        c2_316      1.0
    r317        cover       1.0                       c2_317      1.0
    r318        cover       2.0                       c2_318      1.0
    r319        cover       3.0                       c1_319_3    1.0
    r319        c1_319_6    1.0                       c2_319      1.0
    r320        cover       5.0                       c1_320_0    1.0
    r320        c1_320_2    1.0                       c1_320_3    1.0
    r320        c1_320_6    1.0                       c2_320      1.0
    r321        cover       4.0                       c1_321_7    1.0
    r321        c2_321      1.0
    r322        cover       4.0                       c1_322_1    1.0
    r322        c1_322_2    1.0                       c2_322      1.0
    r323        cover       5.0                       c1_323_1    1.0
    r323        c1_323_5    1.0                       c2_323      1.0
    r324        cover       3.0                       c1_324_0    1.0
    r324        c1_324_1    1.0                       c1_324_5    1.0
    r324        c1_324_9    1.0                       c2_324      1.0
    r325        cover       3.0                       c1_325_1    1.0
    r325        c1_325_2    1.0                       c2_325      1.0
    r326        cover       3.0                       c2_326      1.0
    r327        cover       5.0                       c1_327_1    1.0
    r327        c1_327_5    1.0                       c1_327_9    1.0
    r327        c2_327      1.0
    r328        cover       3.0                       c1_328_0    1.0
    r328        c1_328_1    1.0                       c1_328_5    1.0
    r328        c2_328      1.0
    r329        cover       5.0                       c2_329      1.0
    r330        cover       4.0                       c2_330      1.0
    r331        cover       5.0                       c1_331_8    1.0
    r331        c2_331      1.0
    r332        cover       2.0                       c1_332_8    1.0
    r332        c2_332      1.0
    r333        cover       1.0                       c1_333_0    1.0
    r333        c1_333_1    1.0                       c1_333_5    1.0
    r333        c1_333_9    1.0                       c2_333      1.0
    r334        cover       1.0                       c2_334      1.0
    r335        cover       2.0                       c2_335      1.0
    r336        cover       5.0                       c1_336_1    1.0
    r336        c1_336_2    1.0                       c2_336      1.0
    r337        cover       1.0                       c1_337_1    1.0
    r337        c2_337      1.0
    r338        cover       2.0                       c1_338_7    1.0
    r338        c2_338      1.0
    r339        cover       3.0                       c1_339_0    1.0
    r339        c1_339_2    1.0                       c1_339_3    1.0
    r339        c1_339_6    1.0                       c1_339_9    1.0
    r339        c2_339      1.0
    r340        cover       2.0                       c2_340      1.0
    r341        cover       1.0                       c1_341_7    1.0
    r341        c2_341      1.0
    r342        cover       5.0                       c1_342_7    1.0
    r342        c2_342      1.0
    r343        cover       5.0                       c1_343_7    1.0
    r343        c2_343      1.0
    r344        cover       5.0                       c1_344_8    1.0
    r344        c2_344      1.0
    r345        cover       1.0                       c2_345      1.0
    r346        cover       3.0                       c1_346_1    1.0
    r346        c1_346_4    1.0                       c1_346_5    1.0
    r346        c2_346      1.0
    r347        cover       5.0                       c1_347_7    1.0
    r347        c2_347      1.0
    r348        cover       4.0                       c1_348_0    1.0
    r348        c1_348_1    1.0                       c1_348_2    1.0
    r348        c2_348      1.0
    r349        cover       3.0                       c1_349_0    1.0
    r349        c1_349_2    1.0                       c1_349_3    1.0
    r349        c1_349_6    1.0                       c2_349      1.0
    r350        cover       2.0                       c1_350_6    1.0
    r350        c1_350_9    1.0                       c2_350      1.0
    r351        cover       4.0                       c1_351_8    1.0
    r351        c2_351      1.0
    r352        cover       3.0                       c1_352_0    1.0
    r352        c1_352_2    1.0                       c1_352_3    1.0
    r352        c1_352_6    1.0                       c2_352      1.0
    r353        cover       1.0                       c1_353_6    1.0
    r353        c1_353_9    1.0                       c2_353      1.0
    r354        cover       4.0                       c1_354_1    1.0
    r354        c1_354_4    1.0                       c1_354_5    1.0
    r354        c2_354      1.0
    r355        cover       3.0                       c1_355_1    1.0
    r355        c2_355      1.0
    r356        cover       3.0                       c2_356      1.0
    r357        cover       3.0                       c1_357_0    1.0
    r357        c1_357_1    1.0                       c1_357_2    1.0
    r357        c1_357_3    1.0                       c1_357_6    1.0
    r357        c2_357      1.0
    r358        cover       3.0                       c1_358_2    1.0
    r358        c2_358      1.0
    r359        cover       5.0                       c1_359_7    1.0
    r359        c2_359      1.0
    r360        cover       4.0                       c1_360_8    1.0
    r360        c2_360      1.0
    r361        cover       3.0                       c1_361_7    1.0
    r361        c2_361      1.0
    r362        cover       2.0                       c2_362      1.0
    r363        cover       3.0                       c1_363_5    1.0
    r363        c1_363_9    1.0                       c2_363      1.0
    r364        cover       5.0                       c1_364_4    1.0
    r364        c1_364_5    1.0                       c2_364      1.0
    r365        cover       4.0                       c1_365_2    1.0
    r365        c2_365      1.0
    r366        cover       4.0                       c1_366_4    1.0
    r366        c1_366_5    1.0                       c2_366      1.0
    r367        cover       3.0                       c1_367_3    1.0
    r367        c1_367_8    1.0                       c2_367      1.0
    r368        cover       3.0                       c2_368      1.0
    r369        cover       2.0                       c2_369      1.0
    r370        cover       4.0                       c1_370_4    1.0
    r370        c1_370_5    1.0                       c2_370      1.0
    r371        cover       4.0                       c1_371_1    1.0
    r371        c2_371      1.0
    r372        cover       4.0                       c1_372_9    1.0
    r372        c2_372      1.0
    r373        cover       1.0                       c1_373_4    1.0
    r373        c1_373_5    1.0                       c2_373      1.0
    r374        cover       4.0                       c1_374_9    1.0
    r374        c2_374      1.0
    r375        cover       4.0                       c2_375      1.0
    r376        cover       2.0                       c1_376_7    1.0
    r376        c2_376      1.0
    r377        cover       2.0                       c1_377_4    1.0
    r377        c2_377      1.0
    r378        cover       5.0                       c1_378_0    1.0
    r378        c1_378_1    1.0                       c1_378_2    1.0
    r378        c2_378      1.0
    r379        cover       2.0                       c1_379_0    1.0
    r379        c1_379_6    1.0                       c1_379_9    1.0
    r379        c2_379      1.0
    r380        cover       4.0                       c2_380      1.0
    r381        cover       4.0                       c1_381_9    1.0
    r381        c2_381      1.0
    r382        cover       4.0                       c1_382_7    1.0
    r382        c2_382      1.0
    r383        cover       2.0                       c1_383_7    1.0
    r383        c2_383      1.0
    r384        cover       3.0                       c2_384      1.0
    r385        cover       1.0                       c2_385      1.0
    r386        cover       5.0                       c2_386      1.0
    r387        cover       3.0                       c1_387_9    1.0
    r387        c2_387      1.0
    r388        cover       1.0                       c2_388      1.0
    r389        cover       2.0                       c1_389_2    1.0
    r389        c2_389      1.0
    r390        cover       5.0                       c1_390_8    1.0
    r390        c2_390      1.0
    r391        cover       5.0                       c1_391_1    1.0
    r391        c2_391      1.0
    r392        cover       2.0                       c1_392_0    1.0
    r392        c1_392_1    1.0                       c1_392_5    1.0
    r392        c1_392_9    1.0                       c2_392      1.0
    r393        cover       3.0                       c1_393_4    1.0
    r393        c1_393_5    1.0                       c2_393      1.0
    r394        cover       1.0                       c1_394_5    1.0
    r394        c1_394_9    1.0                       c2_394      1.0
    r395        cover       4.0                       c1_395_0    1.0
    r395        c1_395_1    1.0                       c1_395_2    1.0
    r395        c2_395      1.0
    r396        cover       4.0                       c1_396_2    1.0
    r396        c1_396_3    1.0                       c2_396      1.0
    r397        cover       1.0                       c1_397_7    1.0
    r397        c2_397      1.0
    r398        cover       4.0                       c2_398      1.0
    r399        cover       3.0                       c1_399_1    1.0
    r399        c1_399_4    1.0                       c1_399_5    1.0
    r399        c2_399      1.0
    r400        cover       2.0                       c2_400      1.0
    r401        cover       4.0                       c2_401      1.0
    r402        cover       2.0                       c1_402_3    1.0
    r402        c1_402_8    1.0                       c2_402      1.0
    r403        cover       4.0                       c1_403_3    1.0
    r403        c1_403_8    1.0                       c2_403      1.0
    r404        cover       4.0                       c2_404      1.0
    r405        cover       5.0                       c2_405      1.0
    r406        cover       4.0                       c1_406_0    1.0
    r406        c1_406_1    1.0                       c1_406_5    1.0
    r406        c1_406_9    1.0                       c2_406      1.0
    r407        cover       5.0                       c1_407_1    1.0
    r407        c1_407_4    1.0                       c1_407_5    1.0
    r407        c2_407      1.0
    r408        cover       1.0                       c2_408      1.0
    r409        cover       4.0                       c1_409_0    1.0
    r409        c1_409_2    1.0                       c1_409_3    1.0
    r409        c2_409      1.0
    r410        cover       4.0                       c2_410      1.0
    r411        cover       4.0                       c1_411_8    1.0
    r411        c2_411      1.0
    r412        cover       5.0                       c1_412_0    1.0
    r412        c1_412_2    1.0                       c1_412_3    1.0
    r412        c1_412_6    1.0                       c2_412      1.0
    r413        cover       4.0                       c1_413_1    1.0
    r413        c1_413_4    1.0                       c1_413_5    1.0
    r413        c2_413      1.0
    r414        cover       3.0                       c1_414_0    1.0
    r414        c1_414_1    1.0                       c1_414_2    1.0
    r414        c2_414      1.0
    r415        cover       1.0                       c1_415_5    1.0
    r415        c1_415_9    1.0                       c2_415      1.0
    r416        cover       2.0                       c1_416_8    1.0
    r416        c2_416      1.0
    r417        cover       2.0                       c1_417_5    1.0
    r417        c1_417_9    1.0                       c2_417      1.0
    r418        cover       5.0                       c2_418      1.0
    r419        cover       1.0                       c2_419      1.0
    r420        cover       1.0                       c1_420_9    1.0
    r420        c2_420      1.0
    r421        cover       2.0                       c2_421      1.0
    r422        cover       5.0                       c1_422_0    1.0
    r422        c1_422_3    1.0                       c1_422_6    1.0
    r422        c1_422_9    1.0                       c2_422      1.0
    r423        cover       3.0                       c1_423_7    1.0
    r423        c2_423      1.0
    r424        cover       1.0                       c1_424_4    1.0
    r424        c1_424_5    1.0                       c2_424      1.0
    r425        cover       2.0                       c1_425_4    1.0
    r425        c2_425      1.0
    r426        cover       3.0                       c1_426_1    1.0
    r426        c2_426      1.0
    r427        cover       3.0                       c1_427_2    1.0
    r427        c2_427      1.0
    r428        cover       3.0                       c1_428_1    1.0
    r428        c2_428      1.0
    r429        cover       4.0                       c1_429_5    1.0
    r429        c1_429_9    1.0                       c2_429      1.0
    r430        cover       3.0                       c1_430_4    1.0
    r430        c1_430_5    1.0                       c2_430      1.0
    r431        cover       3.0                       c1_431_0    1.0
    r431        c1_431_1    1.0                       c1_431_2    1.0
    r431        c1_431_3    1.0                       c1_431_6    1.0
    r431        c1_431_9    1.0                       c2_431      1.0
    r432        cover       2.0                       c1_432_4    1.0
    r432        c1_432_5    1.0                       c2_432      1.0
    r433        cover       5.0                       c1_433_0    1.0
    r433        c1_433_1    1.0                       c1_433_5    1.0
    r433        c1_433_9    1.0                       c2_433      1.0
    r434        cover       4.0                       c1_434_8    1.0
    r434        c2_434      1.0
    r435        cover       2.0                       c1_435_0    1.0
    r435        c1_435_1    1.0                       c1_435_2    1.0
    r435        c2_435      1.0
    r436        cover       2.0                       c1_436_0    1.0
    r436        c1_436_1    1.0                       c1_436_2    1.0
    r436        c2_436      1.0
    r437        cover       3.0                       c1_437_0    1.0
    r437        c1_437_1    1.0                       c1_437_2    1.0
    r437        c1_437_5    1.0                       c2_437      1.0
    r438        cover       4.0                       c1_438_4    1.0
    r438        c1_438_5    1.0                       c1_438_9    1.0
    r438        c2_438      1.0
    r439        cover       5.0                       c1_439_1    1.0
    r439        c1_439_2    1.0                       c2_439      1.0
    r440        cover       5.0                       c1_440_4    1.0
    r440        c1_440_5    1.0                       c2_440      1.0
    r441        cover       2.0                       c1_441_7    1.0
    r441        c2_441      1.0
    r442        cover       4.0                       c1_442_9    1.0
    r442        c2_442      1.0
    r443        cover       2.0                       c1_443_7    1.0
    r443        c2_443      1.0
    r444        cover       2.0                       c1_444_7    1.0
    r444        c2_444      1.0
    r445        cover       5.0                       c2_445      1.0
    r446        cover       5.0                       c2_446      1.0
    r447        cover       2.0                       c1_447_1    1.0
    r447        c1_447_4    1.0                       c1_447_5    1.0
    r447        c2_447      1.0
    r448        cover       5.0                       c2_448      1.0
    r449        cover       5.0                       c1_449_4    1.0
    r449        c1_449_5    1.0                       c2_449      1.0
    r450        cover       3.0                       c1_450_0    1.0
    r450        c1_450_1    1.0                       c1_450_5    1.0
    r450        c2_450      1.0
    r451        cover       3.0                       c1_451_0    1.0
    r451        c1_451_2    1.0                       c1_451_3    1.0
    r451        c1_451_6    1.0                       c2_451      1.0
    r452        cover       1.0                       c1_452_0    1.0
    r452        c1_452_2    1.0                       c1_452_3    1.0
    r452        c1_452_6    1.0                       c1_452_9    1.0
    r452        c2_452      1.0
    r453        cover       1.0                       c2_453      1.0
    r454        cover       2.0                       c1_454_4    1.0
    r454        c2_454      1.0
    r455        cover       2.0                       c2_455      1.0
    r456        cover       2.0                       c1_456_7    1.0
    r456        c2_456      1.0
    r457        cover       2.0                       c1_457_0    1.0
    r457        c1_457_2    1.0                       c1_457_3    1.0
    r457        c1_457_6    1.0                       c2_457      1.0
    r458        cover       5.0                       c1_458_7    1.0
    r458        c2_458      1.0
    r459        cover       1.0                       c1_459_0    1.0
    r459        c1_459_2    1.0                       c1_459_3    1.0
    r459        c1_459_6    1.0                       c2_459      1.0
    r460        cover       2.0                       c1_460_7    1.0
    r460        c2_460      1.0
    r461        cover       3.0                       c1_461_8    1.0
    r461        c2_461      1.0
    r462        cover       5.0                       c2_462      1.0
    r463        cover       1.0                       c1_463_1    1.0
    r463        c1_463_4    1.0                       c1_463_5    1.0
    r463        c2_463      1.0
    r464        cover       5.0                       c1_464_0    1.0
    r464        c1_464_6    1.0                       c1_464_9    1.0
    r464        c2_464      1.0
    r465        cover       4.0                       c1_465_3    1.0
    r465        c1_465_8    1.0                       c2_465      1.0
    r466        cover       2.0                       c1_466_7    1.0
    r466        c2_466      1.0
    r467        cover       3.0                       c2_467      1.0
    r468        cover       1.0                       c1_468_0    1.0
    r468        c1_468_1    1.0                       c1_468_2    1.0
    r468        c2_468      1.0
    r469        cover       5.0                       c1_469_9    1.0
    r469        c2_469      1.0
    r470        cover       1.0                       c1_470_2    1.0
    r470        c2_470      1.0
    r471        cover       4.0                       c2_471      1.0
    r472        cover       3.0                       c2_472      1.0
    r473        cover       5.0                       c1_473_0    1.0
    r473        c1_473_1    1.0                       c1_473_2    1.0
    r473        c1_473_3    1.0                       c1_473_6    1.0
    r473        c2_473      1.0
    r474        cover       4.0                       c1_474_8    1.0
    r474        c2_474      1.0
    r475        cover       3.0                       c2_475      1.0
    r476        cover       2.0                       c1_476_4    1.0
    r476        c1_476_5    1.0                       c2_476      1.0
    r477        cover       1.0                       c1_477_4    1.0
    r477        c2_477      1.0
    r478        cover       4.0                       c1_478_1    1.0
    r478        c2_478      1.0
    r479        cover       1.0                       c1_479_2    1.0
    r479        c2_479      1.0
    r480        cover       1.0                       c1_480_9    1.0
    r480        c2_480      1.0
    r481        cover       4.0                       c1_481_0    1.0
    r481        c1_481_1    1.0                       c1_481_5    1.0
    r481        c2_481      1.0
    r482        cover       4.0                       c1_482_4    1.0
    r482        c1_482_5    1.0                       c2_482      1.0
    r483        cover       5.0                       c1_483_9    1.0
    r483        c2_483      1.0
    r484        cover       3.0                       c1_484_2    1.0
    r484        c1_484_3    1.0                       c1_484_8    1.0
    r484        c2_484      1.0
    r485        cover       2.0                       c1_485_7    1.0
    r485        c2_485      1.0
    r486        cover       3.0                       c1_486_2    1.0
    r486        c2_486      1.0
    r487        cover       2.0                       c2_487      1.0
    r488        cover       2.0                       c1_488_0    1.0
    r488        c1_488_3    1.0                       c1_488_6    1.0
    r488        c2_488      1.0
    r489        cover       5.0                       c1_489_2    1.0
    r489        c1_489_8    1.0                       c2_489      1.0
    r490        cover       3.0                       c2_490      1.0
    r491        cover       4.0                       c1_491_0    1.0
    r491        c1_491_1    1.0                       c1_491_2    1.0
    r491        c1_491_3    1.0                       c1_491_6    1.0
    r491        c2_491      1.0
    r492        cover       1.0                       c1_492_8    1.0
    r492        c2_492      1.0
    r493        cover       5.0                       c2_493      1.0
    r494        cover       5.0                       c1_494_3    1.0
    r494        c1_494_8    1.0                       c2_494      1.0
    r495        cover       5.0                       c2_495      1.0
    r496        cover       4.0                       c1_496_2    1.0
    r496        c2_496      1.0
    r497        cover       1.0                       c2_497      1.0
    r498        cover       2.0                       c2_498      1.0
    r499        cover       4.0                       c1_499_0    1.0
    r499        c1_499_1    1.0                       c1_499_2    1.0
    r499        c1_499_3    1.0                       c1_499_6    1.0
    r499        c1_499_9    1.0                       c2_499      1.0
RHS
    rhs         cover       221.19710267354753
    rhs         c1_0_9      1.0
    rhs         c1_1_0      1.0
    rhs         c1_1_2      1.0
    rhs         c1_1_3      1.0
    rhs         c1_1_6      1.0
    rhs         c1_2_8      1.0
    rhs         c1_3_8      1.0
    rhs         c1_4_1      1.0
    rhs         c1_4_2      1.0
    rhs         c1_5_2      1.0
    rhs         c1_5_3      1.0
    rhs         c1_5_8      1.0
    rhs         c1_6_0      1.0
    rhs         c1_6_1      1.0
    rhs         c1_6_2      1.0
    rhs         c1_7_8      1.0
    rhs         c1_8_0      1.0
    rhs         c1_8_1      1.0
    rhs         c1_8_2      1.0
    rhs         c1_8_5      1.0
    rhs         c1_9_5      1.0
    rhs         c1_9_9      1.0
    rhs         c1_10_1     1.0
    rhs         c1_10_2     1.0
    rhs         c1_12_0     1.0
    rhs         c1_12_1     1.0
    rhs         c1_12_2     1.0
    rhs         c1_12_5     1.0
    rhs         c1_12_9     1.0
    rhs         c1_13_7     1.0
    rhs         c1_15_1     1.0
    rhs         c1_15_2     1.0
    rhs         c1_15_5     1.0
    rhs         c1_17_7     1.0
    rhs         c1_20_7     1.0
    rhs         c1_25_4     1.0
    rhs         c1_25_5     1.0
    rhs         c1_26_4     1.0
    rhs         c1_26_5     1.0
    rhs         c1_28_7     1.0
    rhs         c1_29_7     1.0
    rhs         c1_30_2     1.0
    rhs         c1_31_8     1.0
    rhs         c1_34_0     1.0
    rhs         c1_34_3     1.0
    rhs         c1_34_6     1.0
    rhs         c1_34_9     1.0
    rhs         c1_35_0     1.0
    rhs         c1_35_2     1.0
    rhs         c1_35_3     1.0
    rhs         c1_36_8     1.0
    rhs         c1_37_7     1.0
    rhs         c1_41_6     1.0
    rhs         c1_41_9     1.0
    rhs         c1_42_2     1.0
    rhs         c1_43_0     1.0
    rhs         c1_43_1     1.0
    rhs         c1_43_2     1.0
    rhs         c1_43_5     1.0
    rhs         c1_44_3     1.0
    rhs         c1_44_8     1.0
    rhs         c1_45_0     1.0
    rhs         c1_45_2     1.0
    rhs         c1_45_3     1.0
    rhs         c1_45_6     1.0
    rhs         c1_46_1     1.0
    rhs         c1_46_5     1.0
    rhs         c1_47_1     1.0
    rhs         c1_47_4     1.0
    rhs         c1_47_5     1.0
    rhs         c1_48_4     1.0
    rhs         c1_48_5     1.0
    rhs         c1_49_5     1.0
    rhs         c1_49_9     1.0
    rhs         c1_50_1     1.0
    rhs         c1_50_4     1.0
    rhs         c1_50_5     1.0
    rhs         c1_51_4     1.0
    rhs         c1_51_5     1.0
    rhs         c1_52_0     1.0
    rhs         c1_52_1     1.0
    rhs         c1_52_2     1.0
    rhs         c1_53_7     1.0
    rhs         c1_54_1     1.0
    rhs         c1_55_1     1.0
    rhs         c1_55_5     1.0
    rhs         c1_56_7     1.0
    rhs         c1_57_0     1.0
    rhs         c1_57_1     1.0
    rhs         c1_57_2     1.0
    rhs         c1_57_5     1.0
    rhs         c1_58_0     1.0
    rhs         c1_58_1     1.0
    rhs         c1_58_2     1.0
    rhs         c1_58_5     1.0
    rhs         c1_59_1     1.0
    rhs         c1_59_5     1.0
    rhs         c1_60_4     1.0
    rhs         c1_60_5     1.0
    rhs         c1_61_0     1.0
    rhs         c1_61_2     1.0
    rhs         c1_61_3     1.0
    rhs         c1_61_6     1.0
    rhs         c1_62_0     1.0
    rhs         c1_62_1     1.0
    rhs         c1_62_5     1.0
    rhs         c1_62_9     1.0
    rhs         c1_63_8     1.0
    rhs         c1_64_6     1.0
    rhs         c1_64_9     1.0
    rhs         c1_65_8     1.0
    rhs         c1_66_2     1.0
    rhs         c1_66_8     1.0
    rhs         c1_67_8     1.0
    rhs         c1_68_1     1.0
    rhs         c1_68_4     1.0
    rhs         c1_68_5     1.0
    rhs         c1_70_1     1.0
    rhs         c1_70_5     1.0
    rhs         c1_71_0     1.0
    rhs         c1_71_6     1.0
    rhs         c1_71_9     1.0
    rhs         c1_72_9     1.0
    rhs         c1_76_7     1.0
    rhs         c1_77_4     1.0
    rhs         c1_78_3     1.0
    rhs         c1_78_6     1.0
    rhs         c1_80_2     1.0
    rhs         c1_80_8     1.0
    rhs         c1_82_4     1.0
    rhs         c1_82_5     1.0
    rhs         c1_83_0     1.0
    rhs         c1_83_1     1.0
    rhs         c1_83_2     1.0
    rhs         c1_83_5     1.0
    rhs         c1_84_1     1.0
    rhs         c1_84_4     1.0
    rhs         c1_84_5     1.0
    rhs         c1_86_3     1.0
    rhs         c1_86_8     1.0
    rhs         c1_87_1     1.0
    rhs         c1_87_4     1.0
    rhs         c1_87_5     1.0
    rhs         c1_88_7     1.0
    rhs         c1_90_0     1.0
    rhs         c1_90_2     1.0
    rhs         c1_90_3     1.0
    rhs         c1_92_7     1.0
    rhs         c1_93_1     1.0
    rhs         c1_93_5     1.0
    rhs         c1_94_0     1.0
    rhs         c1_94_3     1.0
    rhs         c1_94_6     1.0
    rhs         c1_94_9     1.0
    rhs         c1_95_4     1.0
    rhs         c1_97_8     1.0
    rhs         c1_99_0     1.0
    rhs         c1_99_2     1.0
    rhs         c1_99_3     1.0
    rhs         c1_99_6     1.0
    rhs         c1_99_9     1.0
    rhs         c1_100_0    1.0
    rhs         c1_100_3    1.0
    rhs         c1_100_6    1.0
    rhs         c1_100_9    1.0
    rhs         c1_101_2    1.0
    rhs         c1_101_3    1.0
    rhs         c1_101_8    1.0
    rhs         c1_102_3    1.0
    rhs         c1_102_8    1.0
    rhs         c1_104_5    1.0
    rhs         c1_104_9    1.0
    rhs         c1_105_7    1.0
    rhs         c1_108_1    1.0
    rhs         c1_108_2    1.0
    rhs         c1_109_2    1.0
    rhs         c1_112_1    1.0
    rhs         c1_112_4    1.0
    rhs         c1_112_5    1.0
    rhs         c1_115_3    1.0
    rhs         c1_115_6    1.0
    rhs         c1_116_0    1.0
    rhs         c1_116_1    1.0
    rhs         c1_116_5    1.0
    rhs         c1_116_6    1.0
    rhs         c1_116_9    1.0
    rhs         c1_118_0    1.0
    rhs         c1_118_1    1.0
    rhs         c1_118_2    1.0
    rhs         c1_118_5    1.0
    rhs         c1_119_4    1.0
    rhs         c1_120_7    1.0
    rhs         c1_121_8    1.0
    rhs         c1_122_0    1.0
    rhs         c1_122_1    1.0
    rhs         c1_122_3    1.0
    rhs         c1_122_6    1.0
    rhs         c1_122_9    1.0
    rhs         c1_123_2    1.0
    rhs         c1_125_9    1.0
    rhs         c1_126_3    1.0
    rhs         c1_126_6    1.0
    rhs         c1_127_3    1.0
    rhs         c1_127_8    1.0
    rhs         c1_128_9    1.0
    rhs         c1_129_0    1.0
    rhs         c1_129_3    1.0
    rhs         c1_129_6    1.0
    rhs         c1_129_9    1.0
    rhs         c1_130_2    1.0
    rhs         c1_130_3    1.0
    rhs         c1_133_4    1.0
    rhs         c1_133_5    1.0
    rhs         c1_134_0    1.0
    rhs         c1_134_1    1.0
    rhs         c1_134_2    1.0
    rhs         c1_134_3    1.0
    rhs         c1_136_4    1.0
    rhs         c1_138_8    1.0
    rhs         c1_139_9    1.0
    rhs         c1_140_9    1.0
    rhs         c1_141_7    1.0
    rhs         c1_143_7    1.0
    rhs         c1_146_7    1.0
    rhs         c1_148_0    1.0
    rhs         c1_148_1    1.0
    rhs         c1_148_2    1.0
    rhs         c1_149_5    1.0
    rhs         c1_149_9    1.0
    rhs         c1_150_7    1.0
    rhs         c1_151_7    1.0
    rhs         c1_152_2    1.0
    rhs         c1_153_0    1.0
    rhs         c1_153_1    1.0
    rhs         c1_153_2    1.0
    rhs         c1_153_5    1.0
    rhs         c1_153_6    1.0
    rhs         c1_153_9    1.0
    rhs         c1_155_8    1.0
    rhs         c1_156_8    1.0
    rhs         c1_157_0    1.0
    rhs         c1_157_5    1.0
    rhs         c1_157_6    1.0
    rhs         c1_157_9    1.0
    rhs         c1_163_1    1.0
    rhs         c1_164_0    1.0
    rhs         c1_164_3    1.0
    rhs         c1_164_6    1.0
    rhs         c1_164_9    1.0
    rhs         c1_166_0    1.0
    rhs         c1_166_1    1.0
    rhs         c1_166_2    1.0
    rhs         c1_167_0    1.0
    rhs         c1_167_1    1.0
    rhs         c1_167_2    1.0
    rhs         c1_167_3    1.0
    rhs         c1_167_6    1.0
    rhs         c1_168_7    1.0
    rhs         c1_169_3    1.0
    rhs         c1_169_6    1.0
    rhs         c1_170_3    1.0
    rhs         c1_170_8    1.0
    rhs         c1_171_0    1.0
    rhs         c1_171_1    1.0
    rhs         c1_171_2    1.0
    rhs         c1_171_5    1.0
    rhs         c1_172_4    1.0
    rhs         c1_172_5    1.0
    rhs         c1_173_1    1.0
    rhs         c1_173_4    1.0
    rhs         c1_173_5    1.0
    rhs         c1_174_5    1.0
    rhs         c1_174_9    1.0
    rhs         c1_175_1    1.0
    rhs         c1_175_5    1.0
    rhs         c1_176_0    1.0
    rhs         c1_176_1    1.0
    rhs         c1_176_5    1.0
    rhs         c1_176_9    1.0
    rhs         c1_177_7    1.0
    rhs         c1_178_6    1.0
    rhs         c1_178_9    1.0
    rhs         c1_179_0    1.0
    rhs         c1_179_1    1.0
    rhs         c1_179_2    1.0
    rhs         c1_180_4    1.0
    rhs         c1_180_5    1.0
    rhs         c1_181_4    1.0
    rhs         c1_181_5    1.0
    rhs         c1_182_6    1.0
    rhs         c1_182_9    1.0
    rhs         c1_184_1    1.0
    rhs         c1_184_5    1.0
    rhs         c1_186_2    1.0
    rhs         c1_186_3    1.0
    rhs         c1_186_8    1.0
    rhs         c1_187_8    1.0
    rhs         c1_189_7    1.0
    rhs         c1_190_0    1.0
    rhs         c1_190_3    1.0
    rhs         c1_190_6    1.0
    rhs         c1_191_8    1.0
    rhs         c1_192_4    1.0
    rhs         c1_192_5    1.0
    rhs         c1_196_7    1.0
    rhs         c1_197_7    1.0
    rhs         c1_198_7    1.0
    rhs         c1_199_8    1.0
    rhs         c1_200_9    1.0
    rhs         c1_202_0    1.0
    rhs         c1_202_1    1.0
    rhs         c1_202_2    1.0
    rhs         c1_202_5    1.0
    rhs         c1_204_4    1.0
    rhs         c1_204_5    1.0
    rhs         c1_205_2    1.0
    rhs         c1_206_2    1.0
    rhs         c1_207_1    1.0
    rhs         c1_207_2    1.0
    rhs         c1_208_1    1.0
    rhs         c1_209_1    1.0
    rhs         c1_209_4    1.0
    rhs         c1_209_5    1.0
    rhs         c1_210_0    1.0
    rhs         c1_210_2    1.0
    rhs         c1_210_3    1.0
    rhs         c1_210_6    1.0
    rhs         c1_213_6    1.0
    rhs         c1_213_9    1.0
    rhs         c1_214_9    1.0
    rhs         c1_215_3    1.0
    rhs         c1_216_7    1.0
    rhs         c1_217_4    1.0
    rhs         c1_219_0    1.0
    rhs         c1_219_6    1.0
    rhs         c1_219_9    1.0
    rhs         c1_221_0    1.0
    rhs         c1_221_2    1.0
    rhs         c1_221_3    1.0
    rhs         c1_221_6    1.0
    rhs         c1_222_7    1.0
    rhs         c1_224_4    1.0
    rhs         c1_225_0    1.0
    rhs         c1_225_3    1.0
    rhs         c1_225_6    1.0
    rhs         c1_226_0    1.0
    rhs         c1_226_3    1.0
    rhs         c1_226_6    1.0
    rhs         c1_226_9    1.0
    rhs         c1_227_9    1.0
    rhs         c1_228_6    1.0
    rhs         c1_228_9    1.0
    rhs         c1_229_4    1.0
    rhs         c1_229_5    1.0
    rhs         c1_230_7    1.0
    rhs         c1_232_8    1.0
    rhs         c1_233_0    1.0
    rhs         c1_233_2    1.0
    rhs         c1_233_3    1.0
    rhs         c1_233_6    1.0
    rhs         c1_234_4    1.0
    rhs         c1_234_5    1.0
    rhs         c1_235_2    1.0
    rhs         c1_236_4    1.0
    rhs         c1_236_5    1.0
    rhs         c1_238_1    1.0
    rhs         c1_238_2    1.0
    rhs         c1_239_2    1.0
    rhs         c1_241_0    1.0
    rhs         c1_241_1    1.0
    rhs         c1_241_2    1.0
    rhs         c1_241_3    1.0
    rhs         c1_241_6    1.0
    rhs         c1_242_3    1.0
    rhs         c1_242_6    1.0
    rhs         c1_244_2    1.0
    rhs         c1_245_7    1.0
    rhs         c1_246_0    1.0
    rhs         c1_246_1    1.0
    rhs         c1_246_5    1.0
    rhs         c1_246_9    1.0
    rhs         c1_247_0    1.0
    rhs         c1_247_1    1.0
    rhs         c1_247_2    1.0
    rhs         c1_247_3    1.0
    rhs         c1_247_5    1.0
    rhs         c1_247_6    1.0
    rhs         c1_247_9    1.0
    rhs         c1_249_0    1.0
    rhs         c1_249_3    1.0
    rhs         c1_249_6    1.0
    rhs         c1_249_9    1.0
    rhs         c1_251_8    1.0
    rhs         c1_253_0    1.0
    rhs         c1_253_3    1.0
    rhs         c1_253_6    1.0
    rhs         c1_253_9    1.0
    rhs         c1_255_7    1.0
    rhs         c1_256_1    1.0
    rhs         c1_257_7    1.0
    rhs         c1_258_0    1.0
    rhs         c1_258_1    1.0
    rhs         c1_258_2    1.0
    rhs         c1_258_3    1.0
    rhs         c1_258_6    1.0
    rhs         c1_258_9    1.0
    rhs         c1_259_0    1.0
    rhs         c1_259_3    1.0
    rhs         c1_259_6    1.0
    rhs         c1_259_9    1.0
    rhs         c1_260_8    1.0
    rhs         c1_261_0    1.0
    rhs         c1_261_1    1.0
    rhs         c1_261_2    1.0
    rhs         c1_261_5    1.0
    rhs         c1_263_0    1.0
    rhs         c1_263_6    1.0
    rhs         c1_263_9    1.0
    rhs         c1_264_1    1.0
    rhs         c1_266_0    1.0
    rhs         c1_266_1    1.0
    rhs         c1_266_2    1.0
    rhs         c1_269_0    1.0
    rhs         c1_269_3    1.0
    rhs         c1_269_6    1.0
    rhs         c1_269_9    1.0
    rhs         c1_271_9    1.0
    rhs         c1_272_0    1.0
    rhs         c1_272_3    1.0
    rhs         c1_272_6    1.0
    rhs         c1_273_0    1.0
    rhs         c1_273_3    1.0
    rhs         c1_273_6    1.0
    rhs         c1_273_9    1.0
    rhs         c1_274_6    1.0
    rhs         c1_274_9    1.0
    rhs         c1_277_4    1.0
    rhs         c1_278_8    1.0
    rhs         c1_279_0    1.0
    rhs         c1_279_2    1.0
    rhs         c1_279_3    1.0
    rhs         c1_279_6    1.0
    rhs         c1_280_2    1.0
    rhs         c1_280_8    1.0
    rhs         c1_283_7    1.0
    rhs         c1_284_8    1.0
    rhs         c1_285_0    1.0
    rhs         c1_285_6    1.0
    rhs         c1_285_9    1.0
    rhs         c1_286_0    1.0
    rhs         c1_286_1    1.0
    rhs         c1_286_5    1.0
    rhs         c1_287_3    1.0
    rhs         c1_288_1    1.0
    rhs         c1_288_2    1.0
    rhs         c1_289_3    1.0
    rhs         c1_289_6    1.0
    rhs         c1_290_7    1.0
    rhs         c1_292_0    1.0
    rhs         c1_292_1    1.0
    rhs         c1_292_2    1.0
    rhs         c1_292_5    1.0
    rhs         c1_293_7    1.0
    rhs         c1_294_1    1.0
    rhs         c1_295_1    1.0
    rhs         c1_296_4    1.0
    rhs         c1_297_7    1.0
    rhs         c1_298_0    1.0
    rhs         c1_298_1    1.0
    rhs         c1_298_2    1.0
    rhs         c1_298_5    1.0
    rhs         c1_299_3    1.0
    rhs         c1_299_6    1.0
    rhs         c1_300_0    1.0
    rhs         c1_300_2    1.0
    rhs         c1_300_3    1.0
    rhs         c1_301_0    1.0
    rhs         c1_301_3    1.0
    rhs         c1_301_6    1.0
    rhs         c1_301_9    1.0
    rhs         c1_302_9    1.0
    rhs         c1_303_0    1.0
    rhs         c1_303_1    1.0
    rhs         c1_303_5    1.0
    rhs         c1_303_9    1.0
    rhs         c1_305_7    1.0
    rhs         c1_306_0    1.0
    rhs         c1_306_1    1.0
    rhs         c1_306_2    1.0
    rhs         c1_307_6    1.0
    rhs         c1_307_9    1.0
    rhs         c1_308_7    1.0
    rhs         c1_309_0    1.0
    rhs         c1_309_1    1.0
    rhs         c1_309_2    1.0
    rhs         c1_309_3    1.0
    rhs         c1_309_6    1.0
    rhs         c1_309_9    1.0
    rhs         c1_310_9    1.0
    rhs         c1_311_4    1.0
    rhs         c1_311_5    1.0
    rhs         c1_313_0    1.0
    rhs         c1_313_1    1.0
    rhs         c1_313_2    1.0
    rhs         c1_313_5    1.0
    rhs         c1_313_9    1.0
    rhs         c1_315_0    1.0
    rhs         c1_315_1    1.0
    rhs         c1_315_2    1.0
    rhs         c1_316_7    1.0
    rhs         c1_319_3    1.0
    rhs         c1_319_6    1.0
    rhs         c1_320_0    1.0
    rhs         c1_320_2    1.0
    rhs         c1_320_3    1.0
    rhs         c1_320_6    1.0
    rhs         c1_321_7    1.0
    rhs         c1_322_1    1.0
    rhs         c1_322_2    1.0
    rhs         c1_323_1    1.0
    rhs         c1_323_5    1.0
    rhs         c1_324_0    1.0
    rhs         c1_324_1    1.0
    rhs         c1_324_5    1.0
    rhs         c1_324_9    1.0
    rhs         c1_325_1    1.0
    rhs         c1_325_2    1.0
    rhs         c1_327_1    1.0
    rhs         c1_327_5    1.0
    rhs         c1_327_9    1.0
    rhs         c1_328_0    1.0
    rhs         c1_328_1    1.0
    rhs         c1_328_5    1.0
    rhs         c1_331_8    1.0
    rhs         c1_332_8    1.0
    rhs         c1_333_0    1.0
    rhs         c1_333_1    1.0
    rhs         c1_333_5    1.0
    rhs         c1_333_9    1.0
    rhs         c1_336_1    1.0
    rhs         c1_336_2    1.0
    rhs         c1_337_1    1.0
    rhs         c1_338_7    1.0
    rhs         c1_339_0    1.0
    rhs         c1_339_2    1.0
    rhs         c1_339_3    1.0
    rhs         c1_339_6    1.0
    rhs         c1_339_9    1.0
    rhs         c1_341_7    1.0
    rhs         c1_342_7    1.0
    rhs         c1_343_7    1.0
    rhs         c1_344_8    1.0
    rhs         c1_346_1    1.0
    rhs         c1_346_4    1.0
    rhs         c1_346_5    1.0
    rhs         c1_347_7    1.0
    rhs         c1_348_0    1.0
    rhs         c1_348_1    1.0
    rhs         c1_348_2    1.0
    rhs         c1_349_0    1.0
    rhs         c1_349_2    1.0
    rhs         c1_349_3    1.0
    rhs         c1_349_6    1.0
    rhs         c1_350_6    1.0
    rhs         c1_350_9    1.0
    rhs         c1_351_8    1.0
    rhs         c1_352_0    1.0
    rhs         c1_352_2    1.0
    rhs         c1_352_3    1.0
    rhs         c1_352_6    1.0
    rhs         c1_353_6    1.0
    rhs         c1_353_9    1.0
    rhs         c1_354_1    1.0
    rhs         c1_354_4    1.0
    rhs         c1_354_5    1.0
    rhs         c1_355_1    1.0
    rhs         c1_357_0    1.0
    rhs         c1_357_1    1.0
    rhs         c1_357_2    1.0
    rhs         c1_357_3    1.0
    rhs         c1_357_6    1.0
    rhs         c1_358_2    1.0
    rhs         c1_359_7    1.0
    rhs         c1_360_8    1.0
    rhs         c1_361_7    1.0
    rhs         c1_363_5    1.0
    rhs         c1_363_9    1.0
    rhs         c1_364_4    1.0
    rhs         c1_364_5    1.0
    rhs         c1_365_2    1.0
    rhs         c1_366_4    1.0
    rhs         c1_366_5    1.0
    rhs         c1_367_3    1.0
    rhs         c1_367_8    1.0
    rhs         c1_370_4    1.0
    rhs         c1_370_5    1.0
    rhs         c1_371_1    1.0
    rhs         c1_372_9    1.0
    rhs         c1_373_4    1.0
    rhs         c1_373_5    1.0
    rhs         c1_374_9    1.0
    rhs         c1_376_7    1.0
    rhs         c1_377_4    1.0
    rhs         c1_378_0    1.0
    rhs         c1_378_1    1.0
    rhs         c1_378_2    1.0
    rhs         c1_379_0    1.0
    rhs         c1_379_6    1.0
    rhs         c1_379_9    1.0
    rhs         c1_381_9    1.0
    rhs         c1_382_7    1.0
    rhs         c1_383_7    1.0
    rhs         c1_387_9    1.0
    rhs         c1_389_2    1.0
    rhs         c1_390_8    1.0
    rhs         c1_391_1    1.0
    rhs         c1_392_0    1.0
    rhs         c1_392_1    1.0
    rhs         c1_392_5    1.0
    rhs         c1_392_9    1.0
    rhs         c1_393_4    1.0
    rhs         c1_393_5    1.0
    rhs         c1_394_5    1.0
    rhs         c1_394_9    1.0
    rhs         c1_395_0    1.0
    rhs         c1_395_1    1.0
    rhs         c1_395_2    1.0
    rhs         c1_396_2    1.0
    rhs         c1_396_3    1.0
    rhs         c1_397_7    1.0
    rhs         c1_399_1    1.0
    rhs         c1_399_4    1.0
    rhs         c1_399_5    1.0
    rhs         c1_402_3    1.0
    rhs         c1_402_8    1.0
    rhs         c1_403_3    1.0
    rhs         c1_403_8    1.0
    rhs         c1_406_0    1.0
    rhs         c1_406_1    1.0
    rhs         c1_406_5    1.0
    rhs         c1_406_9    1.0
    rhs         c1_407_1    1.0
    rhs         c1_407_4    1.0
    rhs         c1_407_5    1.0
    rhs         c1_409_0    1.0
    rhs         c1_409_2    1.0
    rhs         c1_409_3    1.0
    rhs         c1_411_8    1.0
    rhs         c1_412_0    1.0
    rhs         c1_412_2    1.0
    rhs         c1_412_3    1.0
    rhs         c1_412_6    1.0
    rhs         c1_413_1    1.0
    rhs         c1_413_4    1.0
    rhs         c1_413_5    1.0
    rhs         c1_414_0    1.0
    rhs         c1_414_1    1.0
    rhs         c1_414_2    1.0
    rhs         c1_415_5    1.0
    rhs         c1_415_9    1.0
    rhs         c1_416_8    1.0
    rhs         c1_417_5    1.0
    rhs         c1_417_9    1.0
    rhs         c1_420_9    1.0
    rhs         c1_422_0    1.0
    rhs         c1_422_3    1.0
    rhs         c1_422_6    1.0
    rhs         c1_422_9    1.0
    rhs         c1_423_7    1.0
    rhs         c1_424_4    1.0
    rhs         c1_424_5    1.0
    rhs         c1_425_4    1.0
    rhs         c1_426_1    1.0
    rhs         c1_427_2    1.0
    rhs         c1_428_1    1.0
    rhs         c1_429_5    1.0
    rhs         c1_429_9    1.0
    rhs         c1_430_4    1.0
    rhs         c1_430_5    1.0
    rhs         c1_431_0    1.0
    rhs         c1_431_1    1.0
    rhs         c1_431_2    1.0
    rhs         c1_431_3    1.0
    rhs         c1_431_6    1.0
    rhs         c1_431_9    1.0
    rhs         c1_432_4    1.0
    rhs         c1_432_5    1.0
    rhs         c1_433_0    1.0
    rhs         c1_433_1    1.0
    rhs         c1_433_5    1.0
    rhs         c1_433_9    1.0
    rhs         c1_434_8    1.0
    rhs         c1_435_0    1.0
    rhs         c1_435_1    1.0
    rhs         c1_435_2    1.0
    rhs         c1_436_0    1.0
    rhs         c1_436_1    1.0
    rhs         c1_436_2    1.0
    rhs         c1_437_0    1.0
    rhs         c1_437_1    1.0
    rhs         c1_437_2    1.0
    rhs         c1_437_5    1.0
    rhs         c1_438_4    1.0
    rhs         c1_438_5    1.0
    rhs         c1_438_9    1.0
    rhs         c1_439_1    1.0
    rhs         c1_439_2    1.0
    rhs         c1_440_4    1.0
    rhs         c1_440_5    1.0
    rhs         c1_441_7    1.0
    rhs         c1_442_9    1.0
    rhs         c1_443_7    1.0
    rhs         c1_444_7    1.0
    rhs         c1_447_1    1.0
    rhs         c1_447_4    1.0
    rhs         c1_447_5    1.0
    rhs         c1_449_4    1.0
    rhs         c1_449_5    1.0
    rhs         c1_450_0    1.0
    rhs         c1_450_1    1.0
    rhs         c1_450_5    1.0
    rhs         c1_451_0    1.0
    rhs         c1_451_2    1.0
    rhs         c1_451_3    1.0
    rhs         c1_451_6    1.0
    rhs         c1_452_0    1.0
    rhs         c1_452_2    1.0
    rhs         c1_452_3    1.0
    rhs         c1_452_6    1.0
    rhs         c1_452_9    1.0
    rhs         c1_454_4    1.0
    rhs         c1_456_7    1.0
    rhs         c1_457_0    1.0
    rhs         c1_457_2    1.0
    rhs         c1_457_3    1.0
    rhs         c1_457_6    1.0
    rhs         c1_458_7    1.0
    rhs         c1_459_0    1.0
    rhs         c1_459_2    1.0
    rhs         c1_459_3    1.0
    rhs         c1_459_6    1.0
    rhs         c1_460_7    1.0
    rhs         c1_461_8    1.0
    rhs         c1_463_1    1.0
    rhs         c1_463_4    1.0
    rhs         c1_463_5    1.0
    rhs         c1_464_0    1.0
    rhs         c1_464_6    1.0
    rhs         c1_464_9    1.0
    rhs         c1_465_3    1.0
    rhs         c1_465_8    1.0
    rhs         c1_466_7    1.0
    rhs         c1_468_0    1.0
    rhs         c1_468_1    1.0
    rhs         c1_468_2    1.0
    rhs         c1_469_9    1.0
    rhs         c1_470_2    1.0
    rhs         c1_473_0    1.0
    rhs         c1_473_1    1.0
    rhs         c1_473_2    1.0
    rhs         c1_473_3    1.0
    rhs         c1_473_6    1.0
    rhs         c1_474_8    1.0
    rhs         c1_476_4    1.0
    rhs         c1_476_5    1.0
    rhs         c1_477_4    1.0
    rhs         c1_478_1    1.0
    rhs         c1_479_2    1.0
    rhs         c1_480_9    1.0
    rhs         c1_481_0    1.0
    rhs         c1_481_1    1.0
    rhs         c1_481_5    1.0
    rhs         c1_482_4    1.0
    rhs         c1_482_5    1.0
    rhs         c1_483_9    1.0
    rhs         c1_484_2    1.0
    rhs         c1_484_3    1.0
    rhs         c1_484_8    1.0
    rhs         c1_485_7    1.0
    rhs         c1_486_2    1.0
    rhs         c1_488_0    1.0
    rhs         c1_488_3    1.0
    rhs         c1_488_6    1.0
    rhs         c1_489_2    1.0
    rhs         c1_489_8    1.0
    rhs         c1_491_0    1.0
    rhs         c1_491_1    1.0
    rhs         c1_491_2    1.0
    rhs         c1_491_3    1.0
    rhs         c1_491_6    1.0
    rhs         c1_492_8    1.0
    rhs         c1_494_3    1.0
    rhs         c1_494_8    1.0
    rhs         c1_496_2    1.0
    rhs         c1_499_0    1.0
    rhs         c1_499_1    1.0
    rhs         c1_499_2    1.0
    rhs         c1_499_3    1.0
    rhs         c1_499_6    1.0
    rhs         c1_499_9    1.0
    rhs         budget      2.0
    rhs         link0       1.0
    rhs         link1       1.0
    rhs         link2       1.0
    rhs         link3       1.0
    rhs         link4       1.0
    rhs         link5       1.0
    rhs         link6       1.0
    rhs         link7       1.0
    rhs         link8       1.0
    rhs         link9       1.0
BOUNDS
 BV bnd       x0
 BV bnd       x1
 BV bnd       x2
 BV bnd       x3
 BV bnd       x4
 BV bnd       x5
 BV bnd       x6
 BV bnd       x7
 BV bnd       x8
 BV bnd       x9
 BV bnd       y0
 BV bnd       y1
 BV bnd       y2
 BV bnd       y3
 BV bnd       y4
 BV bnd       y5
 BV bnd       y6
 BV bnd       y7
 BV bnd       y8
 BV bnd       y9
 UP bnd       r0          1.0
 UP bnd       r1          1.0
 UP bnd       r2          1.0
 UP bnd       r3          1.0
 UP bnd       r4          1.0
 UP bnd       r5          1.0
 UP bnd       r6          1.0
 UP bnd       r7          1.0
 UP bnd       r8          1.0
 UP bnd       r9          1.0
 UP bnd       r10         1.0
 UP bnd       r11         1.0
 UP bnd       r12         1.0
 UP bnd       r13         1.0
 UP bnd       r14         1.0
 UP bnd       r15         1.0
 UP bnd       r16         1.0
 UP bnd       r17         1.0
 UP bnd       r18         1.0
 UP bnd       r19         1.0
 UP bnd       r20         1.0
 UP bnd       r21         1.0
 UP bnd       r22         1.0
 UP bnd       r23         1.0
 UP bnd       r24         1.0
 UP bnd       r25         1.0
 UP bnd       r26         1.0
 UP bnd       r27         1.0
 UP bnd       r28         1.0
 UP bnd       r29         1.0
 UP bnd       r30         1.0
 UP bnd       r31         1.0
 UP bnd       r32         1.0
 UP bnd       r33         1.0
 UP bnd       r34         1.0
 UP bnd       r35         1.0
 UP bnd       r36         1.0
 UP bnd       r37         1.0
 UP bnd       r38         1.0
 UP bnd       r39         1.0
 UP bnd       r40         1.0
 UP bnd       r41         1.0
 UP bnd       r42         1.0
 UP bnd       r43         1.0
 UP bnd       r44         1.0
 UP bnd       r45         1.0
 UP bnd       r46         1.0
 UP bnd       r47         1.0
 UP bnd       r48         1.0
 UP bnd       r49         1.0
 UP bnd       r50         1.0
 UP bnd       r51         1.0
 UP bnd       r52         1.0
 UP bnd       r53         1.0
 UP bnd       r54         1.0
 UP bnd       r55         1.0
 UP bnd       r56         1.0
 UP bnd       r57         1.0
 UP bnd       r58         1.0
 UP bnd       r59         1.0
 UP bnd       r60         1.0
 UP bnd       r61         1.0
 UP bnd       r62         1.0
 UP bnd       r63         1.0
 UP bnd       r64         1.0
 UP bnd       r65         1.0
 UP bnd       r66         1.0
 UP bnd       r67         1.0
 UP bnd       r68         1.0
 UP bnd       r69         1.0
 UP bnd       r70         1.0
 UP bnd       r71         1.0
 UP bnd       r72         1.0
 UP bnd       r73         1.0
 UP bnd       r74         1.0
 UP bnd       r75         1.0
 UP bnd       r76         1.0
 UP bnd       r77         1.0
 UP bnd       r78         1.0
 UP bnd       r79         1.0
 UP bnd       r80         1.0
 UP bnd       r81         1.0
 UP bnd       r82         1.0
 UP bnd       r83         1.0
 UP bnd       r84         1.0
 UP bnd       r85         1.0
 UP bnd       r86         1.0
 UP bnd       r87         1.0
 UP bnd       r88         1.0
 UP bnd       r89         1.0
 UP bnd       r90         1.0
 UP bnd       r91         1.0
 UP bnd       r92         1.0
 UP bnd       r93         1.0
 UP bnd       r94         1.0
 UP bnd       r95         1.0
 UP bnd       r96         1.0
 UP bnd       r97         1.0
 UP bnd       r98         1.0
 UP bnd       r99         1.0
 UP bnd       r100        1.0
 UP bnd       r101        1.0
 UP bnd       r102        1.0
 UP bnd       r103        1.0
 UP bnd       r104        1.0
 UP bnd       r105        1.0
 UP bnd       r106        1.0
 UP bnd       r107        1.0
 UP bnd       r108        1.0
 UP bnd       r109        1.0
 UP bnd       r110        1.0
 UP bnd       r111        1.0
 UP bnd       r112        1.0
 UP bnd       r113        1.0
 UP bnd       r114        1.0
 UP bnd       r115        1.0
 UP bnd       r116        1.0
 UP bnd       r117        1.0
 UP bnd       r118        1.0
 UP bnd       r119        1.0
 UP bnd       r120        1.0
 UP bnd       r121        1.0
 UP bnd       r122        1.0
 UP bnd       r123        1.0
 UP bnd       r124        1.0
 UP bnd       r125        1.0
 UP bnd       r126        1.0
 UP bnd       r127        1.0
 UP bnd       r128        1.0
 UP bnd       r129        1.0
 UP bnd       r130        1.0
 UP bnd       r131        1.0
 UP bnd       r132        1.0
 UP bnd       r133        1.0
 UP bnd       r134        1.0
 UP bnd       r135        1.0
 UP bnd       r136        1.0
 UP bnd       r137        1.0
 UP bnd       r138        1.0
 UP bnd       r139        1.0
 UP bnd       r140        1.0
 UP bnd       r141        1.0
 UP bnd       r142        1.0
 UP bnd       r143        1.0
 UP bnd       r144        1.0
 UP bnd       r145        1.0
 UP bnd       r146        1.0
 UP bnd       r147        1.0
 UP bnd       r148        1.0
 UP bnd       r149        1.0
 UP bnd       r150        1.0
 UP bnd       r151        1.0
 UP bnd       r152        1.0
 UP bnd       r153        1.0
 UP bnd       r154        1.0
 UP bnd       r155        1.0
 UP bnd       r156        1.0
 UP bnd       r157        1.0
 UP bnd       r158        1.0
 UP bnd       r159        1.0
 UP bnd       r160        1.0
 UP bnd       r161        1.0
 UP bnd       r162        1.0
 UP bnd       r163        1.0
 UP bnd       r164        1.0
 UP bnd       r165        1.0
 UP bnd       r166        1.0
 UP bnd       r167        1.0
 UP bnd       r168        1.0
 UP bnd       r169        1.0
 UP bnd       r170        1.0
 UP bnd       r171        1.0
 UP bnd       r172        1.0
 UP bnd       r173        1.0
 UP bnd       r174        1.0
 UP bnd       r175        1.0
 UP bnd       r176        1.0
 UP bnd       r177        1.0
 UP bnd       r178        1.0
 UP bnd       r179        1.0
 UP bnd       r180        1.0
 UP bnd       r181        1.0
 UP bnd       r182        1.0
 UP bnd       r183        1.0
 UP bnd       r184        1.0
 UP bnd       r185        1.0
 UP bnd       r186        1.0
 UP bnd       r187        1.0
 UP bnd       r188        1.0
 UP bnd       r189        1.0
 UP bnd       r190        1.0
 UP bnd       r191        1.0
 UP bnd       r192        1.0
 UP bnd       r193        1.0
 UP bnd       r194        1.0
 UP bnd       r195        1.0
 UP bnd       r196        1.0
 UP bnd       r197        1.0
 UP bnd       r198        1.0
 UP bnd       r199        1.0
 UP bnd       r200        1.0
 UP bnd       r201        1.0
 UP bnd       r202        1.0
 UP bnd       r203        1.0
 UP bnd       r204        1.0
 UP bnd       r205        1.0
 UP bnd       r206        1.0
 UP bnd       r207        1.0
 UP bnd       r208        1.0
 UP bnd       r209        1.0
 UP bnd       r210        1.0
 UP bnd       r211        1.0
 UP bnd       r212        1.0
 UP bnd       r213        1.0
 UP bnd       r214        1.0
 UP bnd       r215        1.0
 UP bnd       r216        1.0
 UP bnd       r217        1.0
 UP bnd       r218        1.0
 UP bnd       r219        1.0
 UP bnd       r220        1.0
 UP bnd       r221        1.0
 UP bnd       r222        1.0
 UP bnd       r223        1.0
 UP bnd       r224        1.0
 UP bnd       r225        1.0
 UP bnd       r226        1.0
 UP bnd       r227        1.0
 UP bnd       r228        1.0
 UP bnd       r229        1.0
 UP bnd       r230        1.0
 UP bnd       r231        1.0
 UP bnd       r232        1.0
 UP bnd       r233        1.0
 UP bnd       r234        1.0
 UP bnd       r235        1.0
 UP bnd       r236        1.0
 UP bnd       r237        1.0
 UP bnd       r238        1.0
 UP bnd       r239        1.0
 UP bnd       r240        1.0
 UP bnd       r241        1.0
 UP bnd       r242        1.0
 UP bnd       r243        1.0
 UP bnd       r244        1.0
 UP bnd       r245        1.0
 UP bnd       r246        1.0
 UP bnd       r247        1.0
 UP bnd       r248        1.0
 UP bnd       r249        1.0
 UP bnd       r250        1.0
 UP bnd       r251        1.0
 UP bnd       r252        1.0
 UP bnd       r253        1.0
 UP bnd       r254        1.0
 UP bnd       r255        1.0
 UP bnd       r256        1.0
 UP bnd       r257        1.0
 UP bnd       r258        1.0
 UP bnd       r259        1.0
 UP bnd       r260        1.0
 UP bnd       r261        1.0
 UP bnd       r262        1.0
 UP bnd       r263        1.0
 UP bnd       r264        1.0
 UP bnd       r265        1.0
 UP bnd       r266        1.0
 UP bnd       r267        1.0
 UP bnd       r268        1.0
 UP bnd       r269        1.0
 UP bnd       r270        1.0
 UP bnd       r271        1.0
 UP bnd       r272        1.0
 UP bnd       r273        1.0
 UP bnd       r274        1.0
 UP bnd       r275        1.0
 UP bnd       r276        1.0
 UP bnd       r277        1.0
 UP bnd       r278        1.0
 UP bnd       r279        1.0
 UP bnd       r280        1.0
 UP bnd       r281        1.0
 UP bnd       r282        1.0
 UP bnd       r283        1.0
 UP bnd       r284        1.0
 UP bnd       r285        1.0
 UP bnd       r286        1.0
 UP bnd       r287        1.0
 UP bnd       r288        1.0
 UP bnd       r289        1.0
 UP bnd       r290        1.0
 UP bnd       r291        1.0
 UP bnd       r292        1.0
 UP bnd       r293        1.0
 UP bnd       r294        1.0
 UP bnd       r295        1.0
 UP bnd       r296        1.0
 UP bnd       r297        1.0
 UP bnd       r298        1.0
 UP bnd       r299        1.0
 UP bnd       r300        1.0
 UP bnd       r301        1.0
 UP bnd       r302        1.0
 UP bnd       r303        1.0
 UP bnd       r304        1.0
 UP bnd       r305        1.0
 UP bnd       r306        1.0
 UP bnd       r307        1.0
 UP bnd       r308        1.0
 UP bnd       r309        1.0
 UP bnd       r310        1.0
 UP bnd       r311        1.0
 UP bnd       r312        1.0
 UP bnd       r313        1.0
 UP bnd       r314        1.0
 UP bnd       r315        1.0
 UP bnd       r316        1.0
 UP bnd       r317        1.0
 UP bnd       r318        1.0
 UP bnd       r319        1.0
 UP bnd       r320        1.0
 UP bnd       r321        1.0
 UP bnd       r322        1.0
 UP bnd       r323        1.0
 UP bnd       r324        1.0
 UP bnd       r325        1.0
 UP bnd       r326        1.0
 UP bnd       r327        1.0
 UP bnd       r328        1.0
 UP bnd       r329        1.0
 UP bnd       r330        1.0
 UP bnd       r331        1.0
 UP bnd       r332        1.0
 UP bnd       r333        1.0
 UP bnd       r334        1.0
 UP bnd       r335        1.0
 UP bnd       r336        1.0
 UP bnd       r337        1.0
 UP bnd       r338        1.0
 UP bnd       r339        1.0
 UP bnd       r340        1.0
 UP bnd       r341        1.0
 UP bnd       r342        1.0
 UP bnd       r343        1.0
 UP bnd       r344        1.0
 UP bnd       r345        1.0
 UP bnd       r346        1.0
 UP bnd       r347        1.0
 UP bnd       r348        1.0
 UP bnd       r349        1.0
 UP bnd       r350        1.0
 UP bnd       r351        1.0
 UP bnd       r352        1.0
 UP bnd       r353        1.0
 UP bnd       r354        1.0
 UP bnd       r355        1.0
 UP bnd       r356        1.0
 UP bnd       r357        1.0
 UP bnd       r358        1.0
 UP bnd       r359        1.0
 UP bnd       r360        1.0
 UP bnd       r361        1.0
 UP bnd       r362        1.0
 UP bnd       r363        1.0
 UP bnd       r364        1.0
 UP bnd       r365        1.0
 UP bnd       r366        1.0
 UP bnd       r367        1.0
 UP bnd       r368        1.0
 UP bnd       r369        1.0
 UP bnd       r370        1.0
 UP bnd       r371        1.0
 UP bnd       r372        1.0
 UP bnd       r373        1.0
 UP bnd       r374        1.0
 UP bnd       r375        1.0
 UP bnd       r376        1.0
 UP bnd       r377        1.0
 UP bnd       r378        1.0
 UP bnd       r379        1.0
 UP bnd       r380        1.0
 UP bnd       r381        1.0
 UP bnd       r382        1.0
 UP bnd       r383        1.0
 UP bnd       r384        1.0
 UP bnd       r385        1.0
 UP bnd       r386        1.0
 UP bnd       r387        1.0
 UP bnd       r388        1.0
 UP bnd       r389        1.0
 UP bnd       r390        1.0
 UP bnd       r391        1.0
 UP bnd       r392        1.0
 UP bnd       r393        1.0
 UP bnd       r394        1.0
 UP bnd       r395        1.0
 UP bnd       r396        1.0
 UP bnd       r397        1.0
 UP bnd       r398        1.0
 UP bnd       r399        1.0
 UP bnd       r400        1.0
 UP bnd       r401        1.0
 UP bnd       r402        1.0
 UP bnd       r403        1.0
 UP bnd       r404        1.0
 UP bnd       r405        1.0
 UP bnd       r406        1.0
 UP bnd       r407        1.0
 UP bnd       r408        1.0
 UP bnd       r409        1.0
 UP bnd       r410        1.0
 UP bnd       r411        1.0
 UP bnd       r412        1.0
 UP bnd       r413        1.0
 UP bnd       r414        1.0
 UP bnd       r415        1.0
 UP bnd       r416        1.0
 UP bnd       r417        1.0
 UP bnd       r418        1.0
 UP bnd       r419        1.0
 UP bnd       r420        1.0
 UP bnd       r421        1.0
 UP bnd       r422        1.0
 UP bnd       r423        1.0
 UP bnd       r424        1.0
 UP bnd       r425        1.0
 UP bnd       r426        1.0
 UP bnd       r427        1.0
 UP bnd       r428        1.0
 UP bnd       r429        1.0
 UP bnd       r430        1.0
 UP bnd       r431        1.0
 UP bnd       r432        1.0
 UP bnd       r433        1.0
 UP bnd       r434        1.0
 UP bnd       r435        1.0
 UP bnd       r436        1.0
 UP bnd       r437        1.0
 UP bnd       r438        1.0
 UP bnd       r439        1.0
 UP bnd       r440        1.0
 UP bnd       r441        1.0
 UP bnd       r442        1.0
 UP bnd       r443        1.0
 UP bnd       r444        1.0
 UP bnd       r445        1.0
 UP bnd       r446        1.0
 UP bnd       r447        1.0
 UP bnd       r448        1.0
 UP bnd       r449        1.0
 UP bnd       r450        1.0
 UP bnd       r451        1.0
 UP bnd       r452        1.0
 UP bnd       r453        1.0
 UP bnd       r454        1.0
 UP bnd       r455        1.0
 UP bnd       r456        1.0
 UP bnd       r457        1.0
 UP bnd       r458        1.0
 UP bnd       r459        1.0
 UP bnd       r460        1.0
 UP bnd       r461        1.0
 UP bnd       r462        1.0
 UP bnd       r463        1.0
 UP bnd       r464        1.0
 UP bnd       r465        1.0
 UP bnd       r466        1.0
 UP bnd       r467        1.0
 UP bnd       r468        1.0
 UP bnd       r469        1.0
 UP bnd       r470        1.0
 UP bnd       r471        1.0
 UP bnd       r472        1.0
 UP bnd       r473        1.0
 UP bnd       r474        1.0
 UP bnd       r475        1.0
 UP bnd       r476        1.0
 UP bnd       r477        1.0
 UP bnd       r478        1.0
 UP bnd       r479        1.0
 UP bnd       r480        1.0
 UP bnd       r481        1.0
 UP bnd       r482        1.0
 UP bnd       r483        1.0
 UP bnd       r484        1.0
 UP bnd       r485        1.0
 UP bnd       r486        1.0
 UP bnd       r487        1.0
 UP bnd       r488        1.0
 UP bnd       r489        1.0
 UP bnd       r490        1.0
 UP bnd       r491        1.0
 UP bnd       r492        1.0
 UP bnd       r493        1.0
 UP bnd       r494        1.0
 UP bnd       r495        1.0
 UP bnd       r496        1.0
 UP bnd       r497        1.0
 UP bnd       r498        1.0
 UP bnd       r499        1.0
ENDATA
